Nb  N Nb  N Nb  N Nb  N  H 
 1.0000000000000000
     5.3527600000000000    0.0000000000000000    0.0000000000000000
    -7.0649591738454376    8.0432897711258153    0.0000000000000000
     0.0000000000000000    0.0000000000000000   31.4908999999999999
 Nb  N   Nb  N   Nb  N   Nb  N   H  
   4   3   4   3   4   3   4   3   1
Cartesian
 -0.2275258701709444  2.5257538539289288  2.4600691079999999
  2.4214306078783254  1.3267808641960588  1.4608628509999999
 -2.8765712006160840  3.7247670601106537  3.4595902740000000
  5.1252090141789095  0.1029943255192661  0.4918878580000000
  1.5386820549175539  1.7263312835767337  3.4444746420000003
 -1.9938226476553114  3.3252166407299786  1.4762933919999999
  4.2150939232904143  0.5149314111474746  2.4600691079999999
 -1.9810847043761375  3.3715825854459012  6.3665945726579194
  0.7165991889301448  2.1182316972728983  5.4900686925342619
  4.1855942510502926  0.6752284945030500  7.1643443669310409
  3.2979076704910719  0.9516083709533394  4.4176628809414407
 -0.2737074303741980  2.5574061478741874  7.4734372654228576
  5.0895568468962251  0.1363592498730726  5.3894797056672230
  2.4022791952951192  1.3398117650407391  6.4846667392887731
 -3.7600054570936630  6.5473987394918360  2.4600691079999999
 -1.1110489790443934  5.3484257497589667  1.4608628509999999
 -6.4090507875388028  7.7464119456735610  3.4595902740000000
  1.5927294272561907  4.1246392110821741  0.4918878580000000
 -1.9937975320051649  5.7479761691396414  3.4444746420000003
 -5.5263022345780302  7.3468615262928862  1.4762933919999999
  0.6826143363676955  4.5365762967103826  2.4600691079999999
 -5.5010367840052297  7.3466819883163605  6.3734364505727621
 -2.8300428819782955  6.1592327313798609  5.5249456301767008
  0.5843599235172156  4.4711176583024335  7.1774821643686071
 -0.2469665737221981  4.9554495507447518  4.4261637291671638
 -3.8501326830975806  6.6387633141084379  7.3496028273078622
  1.5733241113491025  4.1691443206022614  5.3931185735577110
 -1.1420724983457851  5.4154493357329390  6.4858735386078470
 -3.0547905412764136  3.8177272097170323  7.9553082371052097
