Co  N  H 
 1.0000000000000000
     5.9912599999999996    0.0000000000000000    0.0000000000000000
     2.9956299999999998    5.1885833610000001    0.0000000000000000
     0.0000000000000000    0.0000000000000000   29.3510999999999989
 Co  N   H  
  16  16   1
Cartesian
  1.4978199999999999  1.9457199999999999  0.9172200000000000
  1.4978000000000000  0.2161800000000000  3.3630499999999999
  2.9900699999999998  1.0777500000000000  5.7968400000000004
  1.4978100000000001  2.0261900000000002  8.3175000000000008
  2.9956299999999998  4.5400099999999997  0.9172200000000000
  2.9956200000000002  2.8104700000000000  3.3630499999999999
  4.4934500000000002  3.6816800000000001  5.7968299999999999
  2.9259300000000001  4.4997699999999998  8.3175000000000008
  4.4934399999999997  1.9457199999999999  0.9172200000000000
  4.4934300000000000  0.2161800000000000  3.3630499999999999
  5.9968300000000001  1.0777399999999999  5.7968299999999999
  4.4934399999999997  1.9457199999999999  8.3090399999999995
  5.9912599999999996  4.5400099999999997  0.9172200000000000
  5.9912500000000000  2.8104700000000000  3.3630499999999999
  7.4890800000000004  3.6752500000000001  5.8166200000000003
  6.0609500000000001  4.4997699999999998  8.3175000000000008
  1.4978000000000000  0.2161800000000000  1.5286100000000000
  2.9956399999999999  1.0809599999999999  3.9747300000000001
  1.4978199999999999  1.9325699999999999  6.4578300000000004
  1.4978100000000001  0.2161900000000000  8.9359999999999999
  2.9956200000000002  2.8104700000000000  1.5286100000000000
  4.4934599999999998  3.6752600000000002  3.9747300000000001
  3.0070199999999998  4.5465900000000001  6.4578300000000004
  3.0133000000000001  2.8002699999999998  8.8723799999999997
  4.4934300000000000  0.2161800000000000  1.5286100000000000
  5.9912700000000001  1.0809599999999999  3.9747300000000001
  4.4934500000000002  1.9457199999999999  6.4533300000000002
  4.4934399999999997  0.2366000000000000  8.8723799999999997
  5.9912500000000000  2.8104700000000000  1.5286100000000000
  7.4890900000000000  3.6752600000000002  3.9747300000000001
  5.9798700000000000  4.5465900000000001  6.4578300000000004
  5.9735800000000001  2.8002799999999999  8.8723799999999997
  1.4978100000000001  0.2161900000000000  9.9677299999999995
