Nb  N  H 
 1.0000000000000000
     5.3527600000000000    0.0000000000000000    0.0000000000000000
    -7.0649591740000002    8.0432897709999995    0.0000000000000000
     0.0000000000000000    0.0000000000000000   31.4908999999999999
 Nb  N   H  
  16  12   1
Cartesian
 -0.2275300000000000  2.5257499999999999  2.4600700000000000
  2.4214300000000000  1.3267800000000001  1.4608600000000000
 -2.8765700000000001  3.7247699999999999  3.4595899999999999
  5.1252100000000000  0.1029900000000000  0.4918900000000000
 -1.9841000000000000  3.2906599999999999  6.3715299999999999
  0.6826200000000000  2.1093700000000002  5.5177600000000000
  4.0927899999999999  0.4148500000000000  7.1693699999999998
  3.2766600000000001  0.9191000000000000  4.4233799999999999
 -3.7600099999999999  6.5473999999999997  2.4600700000000000
 -1.1110500000000001  5.3484299999999996  1.4608600000000000
 -6.4090499999999997  7.7464100000000000  3.4595899999999999
  1.5927300000000000  4.1246400000000003  0.4918900000000000
 -5.5277799999999999  7.3584399999999999  6.3582599999999996
 -2.8227899999999999  6.1102499999999997  5.4867100000000004
  0.6390100000000000  4.6578999999999997  7.1592200000000004
 -0.2375900000000000  4.9598300000000002  4.4159699999999997
  1.5386800000000000  1.7263299999999999  3.4444699999999999
 -1.9938199999999999  3.3252199999999998  1.4762900000000001
  4.2150900000000000  0.5149300000000000  2.4600700000000000
 -0.3337500000000000  2.5762600000000000  7.3443500000000004
  5.0901199999999998  0.1185900000000000  5.3908199999999997
  2.3662399999999999  1.3613500000000001  6.4832500000000000
 -1.9938000000000000  5.7479800000000001  3.4444699999999999
 -5.5263000000000000  7.3468600000000004  1.4762900000000001
  0.6826100000000001  4.5365799999999998  2.4600700000000000
 -3.8239500000000000  6.5377400000000003  7.4674100000000001
  1.5476099999999999  4.1275700000000004  5.3819299999999997
 -1.1430100000000001  5.3245800000000001  6.4787800000000004
 -6.6122600000000000  7.7812200000000002  7.9308699999999996
