Pt Zn Pt Zn Pt Zn  H 
 1.0000000000000000
     5.5794746051578743    0.0000000000000000    0.0000000000000000
    -2.7897378025789017    4.8319666580566949    0.0000000000000000
     0.0000000000000000    0.0000000000000000   24.5556212622747871
 Pt  Zn  Pt  Zn  Pt  Zn  H  
   3   1   3   1   3   1   1
Cartesian
  0.0000000000000000  0.0000000000000000  9.9999994769861136
 -1.3948689012894508  2.4159833290283474  9.9999994769861136
  1.3948684012894863  2.4159833290283474  9.9999994769861136
  2.7897373025789372  0.0000000000000000  9.9999994769861136
  2.7897371387020198  1.6106555510749094 12.2778106311373936
  1.3948682374125689  4.0266388801032571 12.2778106311373936
 -1.3948690651663682  4.0266388801032571 12.2778106311373936
 -0.0000001638769175  1.6106555510749094 12.2778106311373936
  0.0284151434583302  3.2007923731748811 14.5744879427713432
  1.4003199688367636  0.8021842067489728 14.5162227329745352
  4.2165844605449347  0.7909829349209321 14.5744881637719335
  2.7775735520744984  3.2283379606704976 14.5786533619173060
 -0.6815488928507170  2.0041489640825190 15.6739003703921682
