In Fe In Fe In Fe In  H 
 1.0000000000000000
     5.7515505929805899    0.0000000000000000    0.0000000000000000
     2.7726318037894404    5.0391316433962716    0.0000000000000000
     0.0000000000000000    0.0000000000000000   24.7214072505426259
 In  Fe  In  Fe  In  Fe  In  H  
   2   3   2   1   1   2   1   1
Cartesian
  4.1589470851735300  0.7585562184494314  9.9999994640732854
  2.6694876905779554  3.2781220401475673  9.9999994640732854
  5.5452629870682504  3.2781220401475673  9.9999994640732854
  1.2831717886832354  0.7585562184494314  9.9999994640732854
  2.7726314935341252  1.6390610200737836 12.3607036252713129
  5.6484067900244197  1.6390610200737836 12.3607036252713129
  4.1589473954288456  4.1586268417719188 12.3607036252713129
  7.0347226919191401  4.1586268417719188 12.3607036252713129
  5.3588241571231769  4.8134683884501888 15.1549498000554976
 -0.2199020259734951 -0.1300017756673133 14.5303503929675077
  3.7769690758917474  2.2327867435936901 14.6651535320713275
  6.8005525289113278  2.3746343033239019 15.1549523463604423
  2.9880063436908983  1.7663794782975148 16.1145975249180218
