Mo  N Mo  N  H 
 1.0000000000000000
     5.7332200000000002    0.0000000000000000    0.0000000000000000
     0.0000000000000000    5.6628600000000002    0.0000000000000000
     0.0000000000000000    0.0000000000000000   34.7558000000000007
 Mo  N   Mo  N   H  
   8   8   8   8   1
Cartesian
  1.6026643188000000  4.2363289374000006  2.0683176580000002
  0.2739332516000000  1.4048989374000000  4.6113995440000002
  4.4692743188000001  1.4048989374000000  1.9477150320000001
  4.6784221843999996  4.2363289374000006  2.0683176580000002
  1.8118121844000001  1.4048989374000000  1.9477150320000001
  0.2739332516000000  4.2363289374000006  4.3698467340000002
  3.1405432516000005  1.4442558143999999  4.4907969180000000
  3.1405432516000005  4.2756858144000001  4.4907969180000000
  1.7083275634000001  5.6254284954000005  0.3538140440000000
  0.2739332516000000  2.7939984953999999  1.1820447580000000
  1.7060916076000001  2.7939984953999999  3.6625662040000000
  4.5749375633999998  2.7939984953999999  3.6625662040000000
  0.2739332516000000  0.1162018872000000  2.8357257219999998
  4.5727016076000000  5.6254284954000005  0.3538140440000000
  3.1405432516000005  5.6254284954000005  2.8343354900000000
  3.1405432516000005  2.9476318872000000  1.1806545260000001
  4.5748050444549380  4.2463510826816826  6.9831020513836464
  3.2255329812007991  1.4251797100961558  9.2897681096892040
  1.7063226447035449  1.4428926821436781  6.9939410005726996
  1.7126500702598679  4.2302894709053298  7.0414496270113220
  4.5600531851749011  1.4075127677538324  6.9369994317545620
  3.2149770865329792  4.2652175485607620  9.2820694941130029
  0.1995081123960284  1.4137453623511849  9.2840029076013089
  0.2029125701873075  4.2596078187099229  9.2859659536738786
  4.5709268875562357  5.6382430289158760  5.3227163743946653
  3.1461338519363391  2.8465992785013623  6.1758107493046346
  4.5778127584823700  2.8428042921219197  9.9777070204410965
  1.7109415090178546  2.8351497073139842  8.8814911425619556
  3.1563348732975296  0.0189379055585766  7.7848303491181037
  1.7098202485086911  5.6397810882810857  5.3574713177619468
  0.2559735889347760  5.6668391075251190  7.7820079587804116
  0.2637523466107216  2.8757627365412501  6.1756363898643567
  1.7133820425853001  0.0335323486053142  9.8819506811566811
