Pt Pb Pt Pb Pt Pb  H 
 1.0000000000000000
     5.8701385845884850    0.0000000000000000    0.0000000000000000
    -2.9350697922942071    5.0836896402430396    0.0000000000000000
     0.0000000000000000    0.0000000000000000   24.7929472454799615
 Pt  Pb  Pt  Pb  Pt  Pb  H  
   3   1   3   1   3   1   1
Cartesian
  0.0000000000000000  0.0000000000000000  9.9999994161571966
 -1.4675348961471035  2.5418448201215198  9.9999994161571966
  1.4675343961471390  2.5418448201215198  9.9999994161571966
  2.9350692922942425  0.0000000000000000  9.9999994161571966
  2.9350691285626569  1.6945632117197833 12.3964736227399808
  1.4675342324155536  4.2364080318413029 12.3964736227399808
 -1.4675350598786889  4.2364080318413029 12.3964736227399808
 -0.0000001637315854  1.6945632117197833 12.3964736227399808
  0.0132040013416219  3.3798057987566281 14.8246872645274852
  1.5057299926719341  0.8220649216749633 14.6979255119565853
  4.3992115793455122  0.8071328847812972 14.6951710898964549
  2.9564824816267103  3.3923624003268564 15.1023495054157948
  0.0087386839344097  2.9305821067875968 16.3366649708340219
