Ti  N  H 
 1.0000000000000000
     5.3111699999999997    0.0000000000000000    0.0000000000000000
     0.0000000000000000    5.8515800000000002    0.0000000000000000
     0.0000000000000000    0.0000000000000000   29.3019999999999996
 Ti  N   H  
  16   8   1
Cartesian
  2.5253000000000001  1.4629000000000001  3.1854200000000001
  0.9135200000000000  4.3886900000000004  0.7433900000000000
  5.1808899999999998  2.9257900000000001  3.1854200000000001
  3.5691099999999998  0.0000000000000000  0.7433900000000000
  1.1822100000000000  1.4629000000000001  0.5661100000000000
  2.7939900000000000  4.3886900000000004  3.0078499999999999
  3.8378000000000001  2.9257900000000001  0.5661100000000000
  0.1384100000000000  0.0000000000000000  3.0078499999999999
  0.4287800000000000  1.5146599999999999  8.1123899999999995
  4.1173299999999999  4.3898700000000002  5.5938800000000004
  3.1043500000000002  2.9981399999999998  8.2154399999999992
  1.4643999999999999 -0.0077300000000000  5.6005900000000004
  4.3912100000000001  1.4420299999999999  5.4003899999999998
  0.6957200000000000  4.4065000000000003  7.8525900000000002
  1.7562899999999999  2.9057599999999999  5.4525499999999996
  3.3609900000000001  0.0509900000000000  7.8184199999999997
  0.8099000000000000  1.4629000000000001  4.3176500000000004
  4.5093399999999999  4.3886900000000004  1.8756200000000001
  3.4654900000000000  2.9257900000000001  4.3176500000000004
  1.8537600000000001  0.0000000000000000  1.8756200000000001
  4.0178599999999998  1.4777199999999999  8.9294100000000007
  2.4122900000000000  4.3794800000000000  6.7510199999999996
  1.3700100000000000  2.9620199999999999  8.9568899999999996
  5.0655799999999997  0.0260000000000000  6.7328500000000000
  4.1320800000000002  4.4971199999999998  8.8315000000000001
