Zn Tl Zn Tl Zn Tl  H 
 1.0000000000000000
     6.1603705640496669    0.0000000000000000    0.0000000000000000
    -3.0801857820247980    5.3350376224559222    0.0000000000000000
     0.0000000000000000    0.0000000000000000   25.0299202287101181
 Zn  Tl  Zn  Tl  Zn  Tl  H  
   3   1   3   1   3   1   1
Cartesian
  0.0000000000000000  0.0000000000000000  9.9999993092590032
 -1.5400928910123990  2.6675188112279611  9.9999993092590032
  1.5400923910124344  2.6675188112279611  9.9999993092590032
  3.0801852820248334  0.0000000000000000  9.9999993092590032
  3.0801851184383637  1.7783458723736283 12.5149601143550591
  1.5400922274259647  4.4458646836015889 12.5149601143550591
 -1.5400930545988685  4.4458646836015889 12.5149601143550591
 -0.0000001635864695  1.7783458723736283 12.5149601143550591
 -0.1347291273774429  3.7103367576402810 14.8863781064574177
  1.6057177467191361  0.6956516780757227 14.8864345489275323
  4.8684082781617120  1.0324106751206903 15.0966278094337678
  2.8093574208078751  3.4003343026962982 15.3746990348003933
 -0.6603203403364328  4.9538196282230178 16.0252802506037817
