Pt Cd Pt Cd Pt Cd Pt  H 
 1.0000000000000000
     5.7412096950709923    0.0000000000000000    0.0000000000000000
     2.8706048475354962    4.9720311261738566    0.0000000000000000
     0.0000000000000000    0.0000000000000000   24.6876782092099560
 Pt  Cd  Pt  Cd  Pt  Cd  Pt  H  
   1   1   3   1   3   1   2   1
Cartesian
  0.0000000000000000  0.0000000000000000 10.0000000000000000
  1.4353024720000001  2.4860168059999999 10.0000000000000000
  2.8706049440000001  0.0000000000000000 10.0000000000000000
  4.3059074160000002  2.4860168059999999 10.0000000000000000
  5.7412098880000002  3.3146890750000000 12.3438391220000003
  4.3059074160000002  0.8286722690000000 12.3438391220000003
  2.8706049440000001  3.3146890750000000 12.3438391220000003
  1.4353024720000001  0.8286722690000000 12.3438391220000003
  2.8452593060000000  1.6724764260000000 14.6590752369999997
  4.3060938999999996  4.1438962999999998 14.9907282090000002
  5.7667478860000001  1.6719010590000001 14.6581717499999993
  7.1764711620000003  4.1134530439999999 14.6591241169999993
  4.3059722010000003  0.8281069260000000 15.4616844350000004
