Fe  N  H 
 1.0000000000000000
     7.5575799999999997    0.0000000000000000    0.0000000000000000
     0.0000000000000000    5.3440200000000004    0.0000000000000000
     0.0000000000000000    0.0000000000000000   32.0641000000000034
 Fe  N   H  
  32   8   1
Cartesian
  1.8893899999999999  1.3360099999999999  0.6679000000000000
  1.8893899999999999  4.0080200000000001  3.3401200000000002
  0.0000000000000000  2.6720100000000002  4.6759100000000000
  0.0000000000000000  0.0000000000000000  2.0040100000000001
  1.8893899999999999  4.0080200000000001  0.6679000000000000
  1.8893899999999999  1.3360099999999999  3.3401200000000002
  0.0000000000000000  2.6720100000000002  2.0040100000000001
  0.0000000000000000  0.0000000000000000  4.6759100000000000
  1.8893899999999999  1.3360399999999999  5.9942200000000003
  1.8893899999999999  3.9549300000000001  8.6296499999999998
 -0.0116100000000000  2.6720100000000002  9.8671699999999998
  0.0005600000000000  0.0000000000000000  7.3751199999999999
  1.8893899999999999  4.0079799999999999  5.9942200000000003
  1.8893899999999999  1.3890899999999999  8.6296499999999998
 -0.0279600000000000  2.6720100000000002  7.3086599999999997
  0.3650400000000000  0.0000000000000000  9.9132400000000001
  5.6681800000000004  1.3360099999999999  0.6679000000000000
  5.6681800000000004  4.0080200000000001  3.3401200000000002
  3.7787899999999999  2.6720100000000002  4.6759100000000000
  3.7787899999999999  0.0000000000000000  2.0040100000000001
  5.6681800000000004  4.0080200000000001  0.6679000000000000
  5.6681800000000004  1.3360099999999999  3.3401200000000002
  3.7787899999999999  2.6720100000000002  2.0040100000000001
  3.7787899999999999  0.0000000000000000  4.6759100000000000
  5.6681800000000004  1.3277200000000000  6.0172900000000000
  5.6681800000000004  4.0032800000000002  8.7413500000000006
  3.7904000000000000  2.6720100000000002  9.8671699999999998
  3.7782300000000002  0.0000000000000000  7.3751199999999999
  5.6681800000000004  4.0163000000000002  6.0172900000000000
  5.6681800000000004  1.3407400000000000  8.7413500000000006
  3.8067500000000001  2.6720100000000002  7.3086599999999997
  3.4137499999999998  0.0000000000000000  9.9132400000000001
  1.8893899999999999  2.6720100000000002  4.6759100000000000
  1.8893899999999999  0.0000000000000000  2.0040100000000001
  1.8893899999999999  2.6720100000000002 10.0060699999999994
  1.8893899999999999  0.0000000000000000  7.2918399999999997
  5.6681800000000004  2.6720100000000002  4.6759100000000000
  5.6681800000000004  0.0000000000000000  2.0040100000000001
  5.6681800000000004  2.6720100000000002 10.0602499999999999
  5.6681800000000004  0.0000000000000000  7.3651400000000002
  1.8893899999999999  0.0000000000000000 10.9490200000000009
