Pt Al Pt Al Pt Al  H 
 1.0000000000000000
     5.5620306063923319    0.0000000000000000    0.0000000000000000
    -2.7810158031961305    4.8168596591257709    0.0000000000000000
     0.0000000000000000    0.0000000000000000   24.5413782632827200
 Pt  Al  Pt  Al  Pt  Al  H  
   3   1   3   1   3   1   1
Cartesian
  0.0000000000000000  0.0000000000000000  9.9999992923310419
 -1.3905077015980793  2.4084300295628713  9.9999992923310419
  1.3905077015980793  2.4084300295628713  9.9999992923310419
  0.0000000000000000  4.8168600591257427  9.9999992923310419
  2.7810154031961587  1.6056199863752498 12.2706889316413736
  1.3905077015980793  4.0140500159381212 12.2706889316413736
 -1.3905077015980793  4.0140500159381212 12.2706889316413736
  0.0000000000000000  1.6056199863752498 12.2706889316413736
  0.0000983999930365  3.2929187669703444 14.6493122633135719
  1.3544518041496434  0.8972670365031926 14.4971955740783986
  4.2072804022638053  0.8968266365343583 14.4971636740806566
  2.7809189032029882  3.2926134669919493 14.4433536778886236
 -0.0000070999994976  2.9767100893474527 16.1946613539540074
