 Y Tl  Y Tl  Y Tl  H 
 1.0000000000000000
     6.9135275107510852    0.0000000000000000    0.0000000000000000
    -3.4567637553755426    5.9872905762980020    0.0000000000000000
     0.0000000000000000    0.0000000000000000   25.6448701851920156
 Y   Tl  Y   Tl  Y   Tl  H  
   3   1   3   1   3   1   1
Cartesian
  0.0000000000000000  0.0000000000000000  9.9999991729639230
 -1.7283818776877713  2.9936452881490010  9.9999991729639230
  1.7283818776877713  2.9936452881490010  9.9999991729639230
  3.4567637553755426  0.0000000000000000  9.9999991729639230
  3.4567637588323068  1.9957635234369038 12.8224350925960078
  1.7283818811445353  4.9894088115859052 12.8224350925960078
 -1.7283818742310078  4.9894088115859052 12.8224350925960078
  0.0000000034567635  1.9957635234369038 12.8224350925960078
 -0.0144344291539040  3.9844728570405570 15.6902335819769245
  1.7150293015160960  0.9889284901301126 15.6902362233985517
  5.1661535576873323  0.9869253522584535 15.6843852949760620
  3.4466625835380635  3.9856239076665592 15.5802556331223379
 -0.0086195994351614  5.9823488941733673 16.7954539374710095
