Pd Tl Pd Tl Pd Tl  H 
 1.0000000000000000
     5.8289795875011796    0.0000000000000000    0.0000000000000000
    -2.9144897937505898    5.0480446427655252    0.0000000000000000
     0.0000000000000000    0.0000000000000000   24.7593402478582263
 Pd  Tl  Pd  Tl  Pd  Tl  H  
   3   1   3   1   3   1   1
Cartesian
  0.0000000000000000  0.0000000000000000  9.9999992255786321
 -1.4572448968752949  2.5240223213827626  9.9999992255786321
  1.4572448968752949  2.5240223213827626  9.9999992255786321
  2.9144897937505898  0.0000000000000000  9.9999992255786321
  2.9144897966650798  1.6826815459058269 12.3796701239291131
  1.4572448997897847  4.2067038672885895 12.3796701239291131
 -1.4572448939608054  4.2067038672885895 12.3796701239291131
  0.0000000029144896  1.6826815459058269 12.3796701239291131
 -0.0078613611568057  3.3542694129918638 14.7221507105548142
  1.4435301589369245  0.8402405289068218 14.7221026774347337
  4.3718398425031531  0.8414673097639513 14.7206524238390557
  2.9072858628000304  3.3612571637405675 14.9446046178753722
 -0.0092801173014649  5.0427013329435599 15.3696557139904506
