Sn  H 
 1.0000000000000000
     6.7269932786016788    0.0000000000000000    0.0000000000000000
     3.3634966393008394    5.8257443541010190    0.0000000000000000
     0.0000000000000000    0.0000000000000000   25.4925666396359709
 Sn  H  
  12   1
Cartesian
  1.6817482630000000  0.9709578120000000 10.0000000000000000
  5.0452447889999998  0.9709578120000000 10.0000000000000000
  3.3634965260000000  3.8838312500000001 10.0000000000000000
  6.7269930520000001  3.8838312500000001 10.0000000000000000
  6.7269930520000001  1.9419156250000000 12.7462834140000005
  3.3634965260000000  1.9419156250000000 12.7462834140000005
  8.4087413150000003  4.8547890620000000 12.7462834140000005
  5.0452447889999998  4.8547890620000000 12.7462834140000005
  0.0009679380000000  0.0005652280000000 15.5437008219999999
  3.3624645670000000  0.0005412180000000 15.5436902119999996
  1.6817509559999999  2.9116957470000000 15.5436796259999994
  5.0452633420000002  2.9128563010000001 15.4702745870000005
  1.6817591670000001  0.9709633270000000 16.5924597799999987
