Zn Ag Zn Ag Zn Ag  H 
 1.0000000000000000
     5.6583105995788952    0.0000000000000000    0.0000000000000000
    -2.8291557997894121    4.9002406532251559    0.0000000000000000
     0.0000000000000000    0.0000000000000000   24.6199902577195928
 Zn  Ag  Zn  Ag  Zn  Ag  H  
   3   1   3   1   3   1   1
Cartesian
  0.0000000000000000  0.0000000000000000  9.9999992923310419
 -1.4145776998947202  2.4501204266125707  9.9999992923310419
  1.4145776998947202  2.4501204266125707  9.9999992923310419
  2.8291553997894403  0.0000000000000000  9.9999992923310419
  2.8291553997894403  1.6334135844083828 12.3099949288598101
  1.4145776998947202  4.0835340110209541 12.3099949288598101
 -1.4145776998947202  4.0835340110209541 12.3099949288598101
  0.0000000000000000  1.6334135844083828 12.3099949288598101
 -0.0249099982371966  3.4496428558794663 14.6294390647199375
  1.4442288977963968  0.7837067445395026 14.8395721498494702
  4.1488837063963580  0.7851654444362749 14.8219798510944223
  2.7918772024275031  3.1868364744774595 14.6329743644697547
 -0.0387853972552776  1.0805822235305451 15.7664403842578782
