Rh Pt Rh Pt Rh Pt Rh  H 
 1.0000000000000000
     5.5439922288213372    0.0000000000000000    0.0000000000000000
     2.7658201070677615    4.8047951129759019    0.0000000000000000
     0.0000000000000000    0.0000000000000000   24.5283236259198425
 Rh  Pt  Rh  Pt  Rh  Pt  Rh  H  
   1   2   2   2   2   2   1   1
Cartesian
  0.0000000000000000  0.0000000000000000 10.0000000000000000
  1.3829109950000000  2.4023986700000002 10.0000000000000000
  2.7719960659999998  0.0000000000000000 10.0000000000000000
  4.1549070620000004  2.4023986700000002 10.0000000000000000
  5.5439921319999996  3.2055781579999998 12.2641603480000008
  4.1610811370000000  0.8031794880000001 12.2641603480000008
  2.7719960659999998  3.2055781579999998 12.2641603480000008
  1.3890850710000000  0.8031794880000001 12.2641603480000008
  2.7753561410000001  1.6045693409999999 14.4851114029999994
  4.1955884409999999  3.9996884380000002 14.5677512589999996
  5.5595804639999997  1.6407741880000000 14.5677491969999995
  6.9129829059999999  3.9970076259999998 14.5128365250000009
  0.0494510350000000  0.0292963520000000 15.4727506930000001
