Pt Re Pt Re Pt Re  H 
 1.0000000000000000
     5.5956155822050579    0.0000000000000000    0.0000000000000000
    -2.7978077911025290    4.8459429845791355    0.0000000000000000
     0.0000000000000000    0.0000000000000000   24.5687980359461413
 Pt  Re  Pt  Re  Pt  Re  H  
   3   1   3   1   3   1   1
Cartesian
  0.0000000000000000  0.0000000000000000 10.0000000000000000
 -1.3989039210000001  2.4229726669999998 10.0000000000000000
  1.3989039210000001  2.4229726669999998 10.0000000000000000
  2.7978078420000001  0.0000000000000000 10.0000000000000000
  2.7978078420000001  1.6153151109999999 12.2844005369999998
  1.3989039210000001  4.0382877769999999 12.2844005369999998
 -1.3989039210000001  4.0382877769999999 12.2844005369999998
  0.0000000000000000  1.6153151109999999 12.2844005369999998
  0.0000170620000000  3.3310914380000001 14.6654135690000000
  1.3685830180000000  0.8973967190000000 14.5482174230000005
  4.2270478579999997  0.8974063830000000 14.5482272360000007
  2.7978323740000000  3.2737605880000000 14.4601456660000007
 -0.0000044700000000  3.1999195450000002 16.2316187240000005
