Ti  N  H 
 1.0000000000000000
     4.1911699999999996    0.0000000000000000    0.0000000000000000
     0.0000000000000000    8.5809300000000004    0.0000000000000000
     0.0000000000000000    0.0000000000000000   33.5294000000000025
 Ti  N   H  
  16  10   1
Cartesian
  0.0000000000000000  6.3880699999999999  3.1433800000000001
  2.0955800000000000  2.0727199999999999  1.0477900000000000
  2.0955800000000000  0.1324900000000000  3.1433800000000001
  0.0000000000000000  4.4069900000000004  1.0477900000000000
  0.0000000000000000  2.1928600000000000  3.1433800000000001
  2.0955800000000000  6.5082100000000001  1.0477900000000000
  0.0000000000000000  8.4484399999999997  1.0477900000000000
  2.0955800000000000  4.1739400000000000  3.1433800000000001
  0.0218300000000000  6.4074299999999997  7.2145500000000000
  2.1055199999999998  2.1045300000000000  5.2210500000000000
  2.0547300000000002  0.1273800000000000  7.2308800000000000
 -0.0019800000000000  4.3693299999999997  5.2303899999999999
 -0.0728400000000000  2.2122400000000000  7.4373300000000002
  2.1027700000000000  6.5154500000000004  5.2488599999999996
 -0.0193300000000000  8.4731199999999998  5.2090199999999998
  2.1962899999999999  4.0657100000000002  7.4442800000000000
  2.0955800000000000  0.0000000000000000  1.0477900000000000
  0.0000000000000000  4.2904700000000000  3.1433800000000001
  0.0000000000000000  6.4361300000000004  1.0477900000000000
  2.0955800000000000  2.1448000000000000  3.1433800000000001
  0.0000000000000000  0.0000000000000000  3.1433800000000001
  2.0784600000000002  0.0205600000000000  5.2314999999999996
  0.1373300000000000  4.3646399999999996  7.3508300000000002
  0.0081300000000000  6.4275200000000003  5.2202500000000001
  2.0024000000000002  2.0926399999999998  7.2940600000000000
 -0.0382400000000000 -0.0595600000000000  7.4684499999999998
  3.1611199999999999  3.1594899999999999  8.8768999999999991
