Ti  N  H 
 1.0000000000000000
     4.1911699999999996    0.0000000000000000    0.0000000000000000
     0.0000000000000000    8.5809300000000004    0.0000000000000000
     0.0000000000000000    0.0000000000000000   33.5294000000000025
 Ti  N   H  
  16  10   1
Cartesian
  0.0000000000000000  6.3880699999999999  3.1433800000000001
  2.0955800000000000  2.0727199999999999  1.0477900000000000
  2.0955800000000000  0.1324900000000000  3.1433800000000001
  0.0000000000000000  4.4069900000000004  1.0477900000000000
  0.0000000000000000  2.1928600000000000  3.1433800000000001
  2.0955800000000000  6.5082100000000001  1.0477900000000000
  0.0000000000000000  8.4484399999999997  1.0477900000000000
  2.0955800000000000  4.1739400000000000  3.1433800000000001
 -0.0394100000000000  6.3863200000000004  7.2041500000000003
  2.0712899999999999  2.0663999999999998  5.2096200000000001
  2.1023600000000000  0.1925600000000000  7.3283300000000002
 -0.0688100000000000  4.3725800000000001  5.2132600000000000
 -0.1454600000000000  2.1213000000000002  7.4297700000000004
  2.0761900000000000  6.5132099999999999  5.2329200000000000
 -0.0144600000000000  8.4698799999999999  5.2263400000000004
  2.0037600000000002  4.1376299999999997  7.1613300000000004
  2.0955800000000000  0.0000000000000000  1.0477900000000000
  0.0000000000000000  4.2904700000000000  3.1433800000000001
  0.0000000000000000  6.4361300000000004  1.0477900000000000
  2.0955800000000000  2.1448000000000000  3.1433800000000001
  0.0000000000000000  0.0000000000000000  3.1433800000000001
  2.0795300000000001 -0.0060600000000000  5.2639800000000001
 -0.1037300000000000  4.3063900000000004  7.4205899999999998
 -0.0197600000000000  6.4283400000000004  5.2119000000000000
  1.9199800000000000  2.1811199999999999  7.2617399999999996
  0.0466200000000000 -0.1341100000000000  7.3733700000000004
  3.1461899999999998  1.2165800000000000  8.8447499999999994
