Ti  N  H 
 1.0000000000000000
     4.1911699999999996    0.0000000000000000    0.0000000000000000
     0.0000000000000000    8.5809300000000004    0.0000000000000000
     0.0000000000000000    0.0000000000000000   33.5294000000000025
 Ti  N   H  
  16  10   1
Cartesian
  0.0000000000000000  6.3880699999999999  3.1433800000000001
  2.0955800000000000  2.0727199999999999  1.0477900000000000
  2.0955800000000000  0.1324900000000000  3.1433800000000001
  0.0000000000000000  4.4069900000000004  1.0477900000000000
  0.0000000000000000  2.1928600000000000  3.1433800000000001
  2.0955800000000000  6.5082100000000001  1.0477900000000000
  0.0000000000000000  8.4484399999999997  1.0477900000000000
  2.0955800000000000  4.1739400000000000  3.1433800000000001
  0.0000000000000000  6.4077299999999999  7.2276100000000003
  2.0955800000000000  2.0867100000000001  5.1815499999999997
  2.0955800000000000  0.1605800000000000  7.2684899999999999
  0.0000000000000000  4.3698699999999997  5.2264200000000001
  0.0000000000000000  2.1916699999999998  7.3115699999999997
  2.0955800000000000  6.5191499999999998  5.2691100000000004
  0.0000000000000000  8.4738000000000007  5.2200800000000003
  2.0955800000000000  4.1122100000000001  7.3080100000000003
  2.0955800000000000  0.0000000000000000  1.0477900000000000
  0.0000000000000000  4.2904700000000000  3.1433800000000001
  0.0000000000000000  6.4361300000000004  1.0477900000000000
  2.0955800000000000  2.1448000000000000  3.1433800000000001
  0.0000000000000000  0.0000000000000000  3.1433800000000001
  2.0955800000000000  0.0142800000000000  5.2428100000000004
  0.0000000000000000  4.3224200000000002  7.4210599999999998
  0.0000000000000000  6.4269900000000000  5.2249900000000000
  2.0955800000000000  2.1570000000000000  7.3106099999999996
  0.0000000000000000 -0.0512100000000000  7.4386000000000001
  2.0955800000000000  2.1243599999999998  8.9824300000000008
