Al Cr Al Cr Al Cr  H 
 1.0000000000000000
     5.4346296154081051    0.0000000000000000    0.0000000000000000
    -2.7173148077040525    4.7065276669336233    0.0000000000000000
     0.0000000000000000    0.0000000000000000   24.4373552706441011
 Al  Cr  Al  Cr  Al  Cr  H  
   3   1   3   1   3   1   1
Cartesian
  0.0000000000000000  0.0000000000000000  9.9999992923310419
 -1.3586574038520263  2.3532636334668262  9.9999992923310419
  1.3586574038520263  2.3532636334668262  9.9999992923310419
  0.0000000000000000  4.7065272669336524  9.9999992923310419
  2.7173148077040525  1.5688423889778862 12.2186775353220582
  1.3586574038520263  3.9221060224447122 12.2186775353220582
 -1.3586574038520263  3.9221060224447122 12.2186775353220582
  0.0000000000000000  1.5688423889778862 12.2186775353220582
  0.0000011999999151  3.1178206793614933 14.6158226656835275
  1.3408243051140194  0.7951221437316701 14.6128142658964215
  4.0938307102922877  0.7951613437288961 14.6128039658971520
  2.7173484077016745  3.1356708780982903 14.1708433971733303
  0.0000102999992711  1.5553521899325460 15.7508781853591646
