 W  N  H 
 1.0000000000000000
     4.9779200000000001    0.0000000000000000    0.0000000000000000
     0.8442721010000001    5.2673169949999998    0.0000000000000000
     0.0000000000000000    0.0000000000000000   37.4144000000000005
 W   N   H  
  12  18   1
Cartesian
  4.5759499999999997  0.2270200000000000  0.6397900000000000
  2.1237100000000000  0.5144600000000000  2.0787399999999998
  4.6169700000000002  1.0183300000000000  3.3976000000000002
  2.1135500000000000  3.1303700000000001  1.3098799999999999
  2.1112899999999999  1.4199600000000001  4.7968999999999999
  4.6386000000000003  1.7018500000000001  6.2349600000000001
  2.1509299999999998  2.2091099999999999  7.5491500000000000
  4.6267600000000000  4.3233100000000002  5.4669900000000000
  4.6351899999999997  2.5903100000000001  8.9343800000000009
  2.1706400000000001  2.8842599999999998 10.4289299999999994
  4.5780399999999997  3.4013499999999999 11.5799199999999995
  1.3522500000000000  0.2289300000000000  9.6765799999999995
  3.8100999999999998  5.0336600000000002  3.8009300000000001
  3.7775900000000000  4.2103200000000003  0.9783900000000000
  1.2716200000000000  4.6119599999999998  2.3780600000000001
  2.8881700000000001  1.4278599999999999  0.3561900000000000
  2.9237600000000001  2.2070599999999998  3.0253299999999999
  0.5255100000000000  1.8065300000000000  1.6757899999999999
  0.5146700000000000  0.9566400000000000  7.9608999999999996
  0.4686000000000000  0.1359000000000000  5.1355000000000004
  2.9404900000000000  0.5311300000000000  6.5368800000000000
  0.4234600000000000  2.6208100000000001  4.5133000000000001
  5.4333799999999997  3.3875999999999999  7.1802099999999998
  3.0387700000000000  2.9994700000000001  5.8329000000000004
  3.1849799999999999  2.1094700000000000 12.1102100000000004
  2.9657000000000000  1.3369700000000000  9.2884200000000003
  0.4909400000000000  1.7195199999999999 10.7317699999999991
  2.9319899999999999  3.7859799999999999  8.6739400000000000
  3.1151000000000000  4.6263300000000003 11.2384400000000007
  5.5421500000000004  4.1444000000000001  9.9645600000000005
  2.8044799999999999  2.5838399999999999 12.9557900000000004
