Ti  N  H 
 1.0000000000000000
     4.1911699999999996    0.0000000000000000    0.0000000000000000
     0.0000000000000000    8.5809300000000004    0.0000000000000000
     0.0000000000000000    0.0000000000000000   33.5294000000000025
 Ti  N   H  
  16  10   1
Cartesian
  0.0000000000000000  6.3880699999999999  3.1433800000000001
  2.0955800000000000  2.0727199999999999  1.0477900000000000
  2.0955800000000000  0.1324900000000000  3.1433800000000001
  0.0000000000000000  4.4069900000000004  1.0477900000000000
  0.0000000000000000  2.1928600000000000  3.1433800000000001
  2.0955800000000000  6.5082100000000001  1.0477900000000000
  0.0000000000000000  8.4484399999999997  1.0477900000000000
  2.0955800000000000  4.1739400000000000  3.1433800000000001
  0.0024300000000000  6.4050700000000003  7.2094600000000000
  2.0997200000000000  2.0895000000000001  5.2323500000000003
  2.1012100000000000  0.1463300000000000  7.2224399999999997
  0.0035400000000000  4.3794899999999997  5.2102700000000004
  0.0070400000000000  2.1985199999999998  7.2134999999999998
  2.0992099999999998  6.5056599999999998  5.2386499999999998
  0.0036100000000000  8.4752799999999997  5.2098300000000002
  2.1020500000000002  4.1237899999999996  7.1532400000000003
  2.0955800000000000  0.0000000000000000  1.0477900000000000
  0.0000000000000000  4.2904700000000000  3.1433800000000001
  0.0000000000000000  6.4361300000000004  1.0477900000000000
  2.0955800000000000  2.1448000000000000  3.1433800000000001
  0.0000000000000000  0.0000000000000000  3.1433800000000001
  2.0989499999999999  0.0131000000000000  5.2274700000000003
  0.0066600000000000  4.3134399999999999  7.4042700000000004
  0.0042800000000000  6.4342499999999996  5.2064500000000002
  2.1031300000000002  2.1335600000000001  7.4030300000000002
  0.0060500000000000 -0.0565400000000000  7.4533100000000001
  2.1021100000000001  6.4444100000000004  7.2345699999999997
