Ti  N  H 
 1.0000000000000000
     4.1911699999999996    0.0000000000000000    0.0000000000000000
     0.0000000000000000    8.5809300000000004    0.0000000000000000
     0.0000000000000000    0.0000000000000000   33.5294000000000025
 Ti  N   H  
  16  10   1
Cartesian
  0.0000000000000000  6.3880699999999999  3.1433800000000001
  2.0955800000000000  2.0727199999999999  1.0477900000000000
  2.0955800000000000  0.1324900000000000  3.1433800000000001
  0.0000000000000000  4.4069900000000004  1.0477900000000000
  0.0000000000000000  2.1928600000000000  3.1433800000000001
  2.0955800000000000  6.5082100000000001  1.0477900000000000
  0.0000000000000000  8.4484399999999997  1.0477900000000000
  2.0955800000000000  4.1739400000000000  3.1433800000000001
  0.0004500000000000  6.3355199999999998  7.2318100000000003
  2.0966499999999999  2.0606100000000001  5.2173200000000000
  2.0959599999999998  0.1162600000000000  7.2310699999999999
  0.0004000000000000  4.3788999999999998  5.1968300000000003
  0.0007300000000000  2.1398500000000000  7.1533300000000004
  2.0959800000000000  6.4972200000000004  5.2491500000000002
  0.0002600000000000  8.4492799999999999  5.2183700000000002
  2.0962200000000002  4.1111000000000004  7.3424500000000004
  2.0955800000000000  0.0000000000000000  1.0477900000000000
  0.0000000000000000  4.2904700000000000  3.1433800000000001
  0.0000000000000000  6.4361300000000004  1.0477900000000000
  2.0955800000000000  2.1448000000000000  3.1433800000000001
  0.0000000000000000  0.0000000000000000  3.1433800000000001
  2.0957499999999998 -0.0104600000000000  5.2293200000000004
  0.0008500000000000  4.2675000000000001  7.2932899999999998
  0.0001200000000000  6.4163800000000002  5.2301799999999998
  2.0962999999999998  2.1122299999999998  7.3867599999999998
  0.0005700000000000 -0.0876800000000000  7.4367999999999999
  2.0956000000000001  4.7612699999999997  9.0689799999999998
