Ti  N  H 
 1.0000000000000000
     4.1911699999999996    0.0000000000000000    0.0000000000000000
     0.0000000000000000    8.5809300000000004    0.0000000000000000
     0.0000000000000000    0.0000000000000000   33.5294000000000025
 Ti  N   H  
  16  10   1
Cartesian
  0.0000000000000000  6.3880699999999999  3.1433800000000001
  2.0955800000000000  2.0727199999999999  1.0477900000000000
  2.0955800000000000  0.1324900000000000  3.1433800000000001
  0.0000000000000000  4.4069900000000004  1.0477900000000000
  0.0000000000000000  2.1928600000000000  3.1433800000000001
  2.0955800000000000  6.5082100000000001  1.0477900000000000
  0.0000000000000000  8.4484399999999997  1.0477900000000000
  2.0955800000000000  4.1739400000000000  3.1433800000000001
  0.0000000000000000  6.3914999999999997  7.3510299999999997
  2.0955800000000000  2.0757400000000001  5.2202700000000002
  2.0955800000000000  0.1460400000000000  7.2358500000000001
  0.0000000000000000  4.4078299999999997  5.2126500000000000
  0.0000000000000000  2.1783600000000001  7.1587899999999998
  2.0955800000000000  6.5093699999999997  5.2482100000000003
  0.0000000000000000  8.4441699999999997  5.2198099999999998
  2.0955800000000000  4.1112000000000002  7.1740100000000000
  2.0955800000000000  0.0000000000000000  1.0477900000000000
  0.0000000000000000  4.2904700000000000  3.1433800000000001
  0.0000000000000000  6.4361300000000004  1.0477900000000000
  2.0955800000000000  2.1448000000000000  3.1433800000000001
  0.0000000000000000  0.0000000000000000  3.1433800000000001
  2.0955800000000000  0.0015400000000000  5.2315399999999999
  0.0000000000000000  4.2808900000000003  7.3476600000000003
  0.0000000000000000  6.4310299999999998  5.2371100000000004
  2.0955800000000000  2.1273800000000000  7.3790500000000003
  0.0000000000000000 -0.0099500000000000  7.3783200000000004
  0.0000000000000000  6.4040800000000004  9.1248500000000003
