Ti  N  H 
 1.0000000000000000
     8.5809300000000004    0.0000000000000000    0.0000000000000000
     0.0000000000000000    5.9272099999999996    0.0000000000000000
     0.0000000000000000    0.0000000000000000   29.6359999999999992
 Ti  N   H  
  32  20   1
Cartesian
  2.1928600000000000  2.9636000000000000  2.2227000000000001
  2.1928600000000000  0.0000000000000000  5.1863000000000001
  6.5082100000000001  2.9636000000000000  5.1863000000000001
  6.5082100000000001  0.0000000000000000  2.2227000000000001
  8.4484399999999997  1.4818000000000000  0.7409000000000000
  8.4484399999999997  4.4454099999999999  3.7044999999999999
  4.1739400000000000  4.4454099999999999  0.7409000000000000
  4.1739400000000000  1.4818000000000000  3.7044999999999999
  6.3880699999999999  2.9636000000000000  2.2227000000000001
  6.3880699999999999  0.0000000000000000  5.1863000000000001
  2.0727199999999999  2.9636000000000000  5.1863000000000001
  2.0727199999999999  0.0000000000000000  2.2227000000000001
  0.1324900000000000  4.4454099999999999  0.7409000000000000
  0.1324900000000000  1.4818000000000000  3.7044999999999999
  4.4069900000000004  1.4818000000000000  0.7409000000000000
  4.4069900000000004  4.4454099999999999  3.7044999999999999
  2.1579199999999998  2.9723600000000001  8.1431400000000007
  2.1091899999999999 -0.0591800000000000 11.0083000000000002
  6.5985100000000001  3.0179200000000002 11.0001099999999994
  6.5029599999999999 -0.0091500000000000  8.0889100000000003
  8.4461300000000001  1.4897700000000000  6.6489700000000003
  8.4676100000000005  4.4847700000000001  9.5994700000000002
  4.1606500000000004  4.4364100000000004  6.6475099999999996
  4.1522199999999998  1.5185700000000000  9.6672799999999999
  6.3846200000000000  2.9631599999999998  8.1255799999999994
  6.3923899999999998 -0.0470600000000000 10.9962400000000002
  1.8950199999999999  3.1157100000000000 11.0264900000000008
  2.0533899999999998  0.0188200000000000  8.1348000000000003
  0.1231600000000000  4.4496399999999996  6.6418799999999996
  0.0663800000000000  1.4795400000000001  9.6277200000000001
  4.3948200000000002  1.4723700000000000  6.6685900000000000
  4.3545699999999998  4.4316399999999998  9.6262899999999991
  0.0000000000000000  2.9636000000000000  5.1863000000000001
  0.0000000000000000  0.0000000000000000  2.2227000000000001
  4.2904700000000000  2.9636000000000000  2.2227000000000001
  4.2904700000000000  0.0000000000000000  5.1863000000000001
  2.1448000000000000  4.4454099999999999  0.7409000000000000
  2.1448000000000000  1.4818000000000000  3.7044999999999999
  6.4361300000000004  1.4818000000000000  0.7409000000000000
  6.4361300000000004  4.4454099999999999  3.7044999999999999
  0.0000000000000000  2.9636000000000000  2.2227000000000001
  0.0000000000000000  0.0000000000000000  5.1863000000000001
 -0.0553200000000000  2.9942600000000001 11.0387100000000000
 -0.0156600000000000  0.0135800000000000  8.1016999999999992
  4.2700100000000001  2.9607000000000001  8.1260499999999993
  4.2834500000000002  0.0147800000000000 10.9573599999999995
  2.1349399999999998  4.4531299999999998  6.6601200000000000
  2.1068799999999999  1.5070399999999999  9.6503200000000007
  6.4268900000000002  1.4887200000000000  6.6462800000000000
  6.4084199999999996  4.4645900000000003  9.5781899999999993
 -0.0202800000000000  2.9758800000000001  8.1015800000000002
 -0.1109000000000000  0.0433900000000000 11.0206199999999992
  2.1768399999999999  4.4635199999999999 12.2846399999999996
