Mo  N  H 
 1.0000000000000000
     5.7332200000000002    0.0000000000000000    0.0000000000000000
     0.0000000000000000    5.6628600000000002    0.0000000000000000
     0.0000000000000000    0.0000000000000000   34.7558000000000007
 Mo  N   H  
  16  16   1
Cartesian
  1.6026600000000000  4.2363299999999997  2.0683199999999999
  0.2739300000000000  1.4049000000000000  4.6113999999999997
  4.4692699999999999  1.4049000000000000  1.9477199999999999
  4.6784200000000000  4.2363299999999997  2.0683199999999999
  1.8118099999999999  1.4049000000000000  1.9477199999999999
  0.2739300000000000  4.2363299999999997  4.3698499999999996
  3.1405400000000001  1.4442600000000001  4.4908000000000001
  3.1405400000000001  4.2756900000000000  4.4908000000000001
  4.6448000000000000  4.2429699999999997  6.9971300000000003
  3.1405500000000002  1.4460599999999999  9.3509600000000006
  1.7801499999999999  1.4015599999999999  6.9331800000000001
  1.6362600000000000  4.2429600000000001  6.9970999999999997
  4.5009399999999999  1.4015599999999999  6.9331699999999996
  3.1405200000000000  4.2498600000000000  9.3462999999999994
  0.2739300000000000  1.5018199999999999  9.2641799999999996
  0.2739300000000000  4.2642699999999998  9.2996400000000001
  1.7083299999999999  5.6254299999999997  0.3538100000000000
  0.2739300000000000  2.7940000000000000  1.1820400000000000
  1.7060900000000001  2.7940000000000000  3.6625700000000001
  4.5749399999999998  2.7940000000000000  3.6625700000000001
  0.2739300000000000  0.1162000000000000  2.8357299999999999
  4.5727000000000002  5.6254299999999997  0.3538100000000000
  3.1405400000000001  5.6254299999999997  2.8343400000000001
  3.1405400000000001  2.9476300000000002  1.1806500000000000
  4.5770799999999996  5.6315900000000001  5.3447199999999997
  3.1405300000000000  2.8788600000000000  6.1868200000000000
  4.5627599999999999  2.8572500000000001  9.8709500000000006
  1.7182900000000001  2.8572700000000002  9.8709500000000006
  3.1405500000000002  5.6589000000000000  7.8347800000000003
  1.7040000000000000  5.6315799999999996  5.3447199999999997
  0.2739400000000000  0.0520500000000000  7.8121099999999997
  0.2739300000000000  2.8448699999999998  6.1633500000000003
  3.1405400000000001  0.0132800000000000 10.5046700000000008
