Mo  N  H 
 1.0000000000000000
     5.7332200000000002    0.0000000000000000    0.0000000000000000
     0.0000000000000000    5.6628600000000002    0.0000000000000000
     0.0000000000000000    0.0000000000000000   34.7558000000000007
 Mo  N   H  
  16  16   1
Cartesian
  1.6026600000000000  4.2363299999999997  2.0683199999999999
  0.2739300000000000  1.4049000000000000  4.6113999999999997
  4.4692699999999999  1.4049000000000000  1.9477199999999999
  4.6784200000000000  4.2363299999999997  2.0683199999999999
  1.8118099999999999  1.4049000000000000  1.9477199999999999
  0.2739300000000000  4.2363299999999997  4.3698499999999996
  3.1405400000000001  1.4442600000000001  4.4908000000000001
  3.1405400000000001  4.2756900000000000  4.4908000000000001
  4.5507600000000004  4.2527200000000001  6.9849699999999997
  3.2267399999999999  1.4391000000000000  9.2949400000000004
  1.6881200000000001  1.4504200000000000  6.9939900000000002
  1.7338899999999999  4.2373399999999997  7.0427499999999998
  4.5783699999999996  1.4152899999999999  6.9352700000000000
  3.2185000000000001  4.2792899999999996  9.2849900000000005
  0.2010700000000000  1.4229700000000001  9.2836400000000001
  0.2062300000000000  4.2696800000000001  9.2884799999999998
  1.7083299999999999  5.6254299999999997  0.3538100000000000
  0.2739300000000000  2.7940000000000000  1.1820400000000000
  1.7060900000000001  2.7940000000000000  3.6625700000000001
  4.5749399999999998  2.7940000000000000  3.6625700000000001
  0.2739300000000000  0.1162000000000000  2.8357299999999999
  4.5727000000000002  5.6254299999999997  0.3538100000000000
  3.1405400000000001  5.6254299999999997  2.8343400000000001
  3.1405400000000001  2.9476300000000002  1.1806500000000000
  4.5705400000000003  5.6426100000000003  5.3240200000000000
  3.1436700000000002  2.8425400000000001  6.1756599999999997
  4.5824600000000002  2.8532700000000002  9.9813600000000005
  1.7135800000000001  2.8453499999999998  8.8761200000000002
  3.1569600000000002  0.0386400000000000  7.7870299999999997
  1.7087600000000001  5.6422400000000001  5.3573500000000003
  0.2550700000000000  5.6626300000000001  7.7817699999999999
  0.2630800000000000  2.8927100000000001  6.1742499999999998
  1.7167600000000001  0.0652600000000000  9.8765599999999996
