Pd Cd Pd Cd Pd Cd  H 
 1.0000000000000000
     5.7444635934821147    0.0000000000000000    0.0000000000000000
    -2.8722317967410573    4.9748516479451670    0.0000000000000000
     0.0000000000000000    0.0000000000000000   24.6903332527416381
 Pd  Cd  Pd  Cd  Pd  Cd  H  
   3   1   3   1   3   1   1
Cartesian
  0.0000000000000000  0.0000000000000000  9.9999991723910124
 -1.4361158983705287  2.4874258239725835  9.9999991723910124
  1.4361158983705287  2.4874258239725835  9.9999991723910124
  2.8722317967410573  0.0000000000000000  9.9999991723910124
  2.8722317996132887  1.6582838809901053 12.3451666263708191
  1.4361159012427605  4.1457097049626883 12.3451666263708191
 -1.4361158954982969  4.1457097049626883 12.3451666263708191
  0.0000000028722317  1.6582838809901053 12.3451666263708191
 -0.0190504392930917  3.2863049931780126 14.6836805293456774
  1.4002376159377634  0.8277364628194559 14.6836589746847483
  4.3171133903984966  0.8340756874312566 14.6938751679457358
  2.8511709933742404  3.3044302333511419 14.8010134372226911
 -0.0052758647203071  4.9718925464867496 15.3687207140459723
