Ta  N  H 
 1.0000000000000000
     5.3044300000000000    0.0000000000000000    0.0000000000000000
     0.0000000000000000    9.7099200000000003    0.0000000000000000
     0.0000000000000000    0.0000000000000000   27.3815999999999988
 Ta  N   H  
  16  20   1
Cartesian
  1.9877300000000000  3.9844700000000000  0.1593600000000000
  1.1268700000000000  8.8394300000000001  2.1152299999999999
  4.6432900000000004  6.7384899999999996  3.6628400000000001
  0.1997100000000000  1.8835299999999999  1.7072400000000001
  3.0497800000000002  2.9714299999999998  2.9615900000000002
  3.9106399999999999  7.8263900000000000  1.0057300000000000
  2.1226200000000000  5.7254500000000004  2.5536099999999999
  2.9834800000000001  0.8704900000000000  0.5977400000000000
  0.2694500000000000  3.9567399999999999  3.9860000000000002
  4.8674600000000003  8.8149400000000000  5.9887800000000002
  2.6187200000000002  6.5012900000000000  7.3599600000000001
  3.8414299999999999  1.9228200000000000  5.8071099999999998
  1.3122600000000000  2.8064499999999999  6.7815099999999999
  2.2540300000000002  7.9054000000000002  4.9317000000000002
  0.2584800000000000  5.7226499999999998  6.2888900000000003
  1.2665599999999999  0.9075100000000000  4.4866200000000003
  3.8465600000000002  4.8549600000000002  3.3123499999999999
  4.7074199999999999  0.0000000000000000  1.3564799999999999
  4.7983300000000000  1.9357700000000000  3.7312900000000000
  0.3547600000000000  6.7907299999999999  1.7754200000000000
  2.9356300000000002  5.8948900000000002  0.5766600000000000
  2.0747700000000000  1.0399300000000000  2.5325199999999999
  1.1747200000000000  3.8150300000000001  2.1363099999999999
  2.0355799999999999  8.6699900000000003  0.1804400000000000
  2.8947300000000000  7.7741499999999997  2.8934099999999998
  3.7555900000000002  2.9191900000000000  0.9375500000000000
  1.5204500000000001  4.8250200000000003  7.8572600000000001
  3.0510799999999998  0.0344000000000000  5.3250599999999997
  2.9442499999999998  2.1298800000000000  7.4912400000000003
  3.8159100000000001  6.7007700000000003  5.7438399999999996
  1.1571600000000000  5.9115200000000003  4.4677300000000004
  0.3388100000000000  1.0267100000000000  6.4836499999999999
  4.8472200000000001  3.8467699999999998  6.0256400000000001
  0.3371700000000000  8.6921599999999994  4.1071799999999996
  1.1991799999999999  7.7445000000000004  6.8747499999999997
  2.0729500000000001  2.9461400000000002  4.9269400000000001
  1.3350299999999999  4.6774100000000001  8.8633799999999994
