Al Pd Al Pd Al Pd Al Pd Al  H 
 1.0000000000000000
     5.3504206213673147    0.0000000000000000    0.0000000000000000
     1.7806928739858841    5.0454076429521377    0.0000000000000000
     0.0000000000000000    0.0000000000000000   24.3677442755702600
 Al  Pd  Al  Pd  Al  Pd  Al  Pd  Al  H  
   1   2   2   2   1   1   1   1   1   1
Cartesian
  3.5613850819373853  2.5197522832319801  9.9999993189018817
  6.2365953926210427  2.5197522832319801  9.9999993189018817
  4.4517315189303268  5.0424561047080489  9.9999993189018817
  7.1269418296139850  5.0424561047080489  9.9999993189018817
  1.7806925445342492  1.2598761441386939 12.1838721377851300
  4.4559028552179072  1.2598761441386939 12.1838721377851300
  2.6710389815271913  3.7825799656147625 12.1838721377851300
  5.3462492922108495  3.7825799656147625 12.1838721377851300
  2.6442391198188848  0.0395625852231265 14.3542880404664057
 -0.0503008585150091 -0.0355754972419523 14.3677959096216590
  6.2677773309006852  2.4803002731627566 14.3543025392742489
  3.6119305259819150  2.5554928763028251 14.3681798721682092
  1.7842016185643621  1.2623505079095430 15.4206850070167150
