Co Mo Co Mo Co Mo Co  H 
 1.0000000000000000
     5.2712586269693631    0.0000000000000000    0.0000000000000000
     2.6088958153765289    4.5803756758610090    0.0000000000000000
     0.0000000000000000    0.0000000000000000   24.3110362795833090
 Co  Mo  Co  Mo  Co  Mo  Co  H  
   1   2   2   2   2   2   1   1
Cartesian
  0.0000000000000000  0.0000000000000000  9.9999992408479521
  1.3044479076882645  2.2901878379305045  9.9999992408479521
  2.6356293134846815  0.0000000000000000  9.9999992408479521
  3.9400772211729462  2.2901878379305045  9.9999992408479521
  5.2712590555904031  3.0639433447703697 12.1555181397916545
  3.9668111479021388  0.7737555068398648 12.1555181397916545
  2.6356297421057215  3.0639433447703697 12.1555181397916545
  1.3311818344174573  0.7737555068398648 12.1555181397916545
  2.6972859142987153  1.5681486154063027 14.2589623371148004
  4.0239738262753795  3.8708707933654463 14.2287308341700491
  5.3731121417473675  1.5912537296347213 14.2470060722283556
  6.6376283520193278  3.8580206181124534 14.2591080088441871
  3.8520186260367089  0.7072130136597589 15.2243815940908469
