Mo Hf Mo Hf Mo Hf Mo  H 
 1.0000000000000000
     5.7364566253855616    0.0000000000000000    0.0000000000000000
     1.7338210691962845    5.4681625490162791    0.0000000000000000
     0.0000000000000000    0.0000000000000000   24.6169882550194465
 Mo  Hf  Mo  Hf  Mo  Hf  Mo  H  
   1   2   2   2   2   2   1   1
Cartesian
  0.0000000000000000  0.0000000000000000 10.0000000000000000
  0.8669099220000001  2.7340814220000000 10.0000000000000000
  2.8682283790000001  0.0000000000000000 10.0000000000000000
  3.7351383010000001  2.7340814220000000 10.0000000000000000
  5.7364567580000001  4.1990252000000003 12.3084932210000009
  4.8695468359999996  1.4649437780000001 12.3084932210000009
  2.8682283790000001  4.1990252000000003 12.3084932210000009
  2.0013184570000000  1.4649437780000001 12.3084932210000009
  3.8572016709999999  2.8235985320000001 14.5857820930000006
  2.9699809680000002  0.1164276540000000 14.6365474350000007
  1.0086274660000001  2.7959118680000001 14.6366575999999995
  0.0620874170000000  0.0454836660000000 14.5482967349999992
  2.6234347090000001  1.9202432370000000 15.7477534670000008
