Al Sc Al Sc Al Sc Al  H 
 1.0000000000000000
     5.9375185798202113    0.0000000000000000    0.0000000000000000
     2.6949528092865420    5.2906866255945042    0.0000000000000000
     0.0000000000000000    0.0000000000000000   24.9032582376735938
 Al  Sc  Al  Sc  Al  Sc  Al  H  
   1   2   2   2   2   2   1   1
Cartesian
  0.0000000000000000  0.0000000000000000  9.9999991481722716
  1.3474764046432710  2.6453433127972521  9.9999991481722716
  2.9687592899101056  0.0000000000000000  9.9999991481722716
  4.3162356945533764  2.6453433127972521  9.9999991481722716
  5.9375185937328743  3.6389984741474746 12.4516291188367969
  4.5900421890896030  0.9936551613502227 12.4516291188367969
  2.9687593038227686  3.6389984741474746 12.4516291188367969
  1.6212828991794979  0.9936551613502227 12.4516291188367969
  3.1810473067900800  1.8405241955789817 14.9310926892325657
  4.4903832592527309  4.5716755252252703 14.9227273859514309
  6.1986153949327800  1.9793553256505010 14.8808266578362147
  7.4003671339079569  4.6446546375283857 14.9314082384176956
  3.2969195258019117  0.2009116977509278 15.8969714371496771
