Al Co Al Co Al Co  H 
 1.0000000000000000
     5.3538246211264235    0.0000000000000000    0.0000000000000000
    -2.6769118105632477    4.6365476718858911    0.0000000000000000
     0.0000000000000000    0.0000000000000000   24.3713772753131614
 Al  Co  Al  Co  Al  Co  H  
   3   1   3   1   3   1   1
Cartesian
  0.0000000000000000  0.0000000000000000  9.9999991100563577
 -1.3384559052816238  2.3182738359429456  9.9999991100563577
  1.3384564052815879  2.3182738359429456  9.9999991100563577
  2.6769123105632118  0.0000000000000000  9.9999991100563577
  2.6769124799067785  1.5455158890831144 12.1856886376565807
  1.3384565746251544  3.8637897250260602 12.1856886376565807
 -1.3384557359380573  3.8637897250260602 12.1856886376565807
  0.0000001693435667  1.5455158890831144 12.1856886376565807
  0.0291346333106628  3.0820411459431760 14.4495237679212316
  1.3080652095378607  0.7903050635281320 14.4263432005109689
  4.0377221834988468  0.7520230599341307 14.4495230855226691
  2.7613216051232756  3.0422985556477680 14.3198418659573719
 -1.6095911009899124  2.4748147110561773 15.4593199319337344
