Ta  N  H 
 1.0000000000000000
     5.3044300000000000    0.0000000000000000    0.0000000000000000
    -1.7217043839999999   10.4682206949999994    0.0000000000000000
     0.0000000000000000    0.0000000000000000   29.0263999999999989
 Ta  N   H  
  16  20   1
Cartesian
  0.5310400000000000  3.1128300000000002  0.2252400000000000
  3.3148700000000000  3.6378599999999999  1.6327300000000000
  2.3190400000000002  0.5857000000000000  0.8757300000000000
  5.1028599999999997  1.1107300000000000  2.2832200000000000
  2.2925000000000000  1.5641300000000000  3.7265999999999999
 -0.1909300000000000  1.9725500000000000  5.5694400000000002
  3.2017500000000001  4.2791800000000002  4.5700000000000003
  0.5839700000000000  4.9898800000000003  5.8963099999999997
 -0.3298100000000000  8.3469400000000000  0.2252400000000000
  2.4540099999999998  8.8719699999999992  1.6327300000000000
  1.4581900000000001  5.8198100000000004  0.8757300000000000
  4.2420099999999996  6.3448399999999996  2.2832200000000000
  1.4681800000000000  6.8680700000000003  3.7126800000000002
 -1.1639699999999999  7.2645799999999996  5.5244400000000002
  2.3885999999999998  9.6191200000000006  4.5585300000000002
 -0.0815400000000000 10.1381200000000007  6.3188000000000004
 -0.2657200000000000  4.7288600000000001  1.2542300000000000
  4.1278600000000001  2.7419899999999999  3.4030600000000000
  4.0869400000000002  1.8646000000000000  0.5520800000000000
  1.5469700000000000  2.3589600000000002  1.9563800000000000
  3.2277600000000000  0.0198900000000000  2.7337099999999999
  1.5483000000000000  3.2090299999999998  4.9547699999999999
  0.7155800000000000  1.1926600000000001  7.0041099999999998
  0.5257200000000000  0.5013800000000000  4.1845600000000003
  3.2902900000000002  0.7858900000000000  5.5286700000000000
  4.3190900000000001  3.7242500000000001  6.1481899999999996
 -1.1265700000000001  9.9629700000000003  1.2542300000000000
  3.2670100000000000  7.9760999999999997  3.4030600000000000
  3.2260800000000001  7.0987099999999996  0.5520800000000000
  0.6861200000000000  7.5930700000000000  1.9563800000000000
  2.3669099999999998  5.2539999999999996  2.7337099999999999
  0.7449500000000000  8.4794000000000000  4.9209600000000000
 -0.1973600000000000  6.4100599999999996  6.9010300000000004
 -0.2802700000000000  5.6839100000000000  4.2258699999999996
  2.4479500000000001  6.0121300000000000  5.5106200000000003
  3.5381800000000001  9.0304900000000004  6.1488800000000001
  0.6309200000000000  9.5111000000000008  7.8087099999999996
