Tc Sc Tc Sc Tc Sc Tc  H 
 1.0000000000000000
     5.6407206008236850    0.0000000000000000    0.0000000000000000
     2.8203598004118779    4.8850076543031475    0.0000000000000000
     0.0000000000000000    0.0000000000000000   24.6056272587360176
 Tc  Sc  Tc  Sc  Tc  Sc  Tc  H  
   1   1   3   1   3   1   2   1
Cartesian
  0.0000000000000000  0.0000000000000000  9.9999991300046815
  1.4101799002059390  2.4425038271515738  9.9999991300046815
  2.8203603004118425  0.0000000000000000  9.9999991300046815
  4.2305402006177815  2.4425038271515738  9.9999991300046815
  5.6407202703107355  3.2566717711637674 12.3028136293680088
  4.2305403701047961  0.8141679440121937 12.3028136293680088
  2.8203599698988926  3.2566717711637674 12.3028136293680088
  1.4101800696929538  0.8141679440121937 12.3028136293680088
  2.7750253522050294  1.6542466085588143 14.3937706761470956
  4.2293295972700840  4.0716997891636089 14.9054989996118703
  5.6852410625651144  1.6548400783687200 14.3938580015182360
  7.0501180001134305  4.0171613556875085 14.3938817951597944
  1.4102390825021880  2.4439135915105292 15.4795406312081028
