Re  N Re  N  H 
 1.0000000000000000
     5.0895099999999998    0.0000000000000000    0.0000000000000000
     1.6866984652090349    4.8298001521762250    0.0000000000000000
     0.0000000000000000    0.0000000000000000   27.7012999999999998
 Re  N   Re  N   H  
   4   8   4   8   1
Cartesian
  5.8306335143708319  3.6155400959176003  3.5637722449999996
  4.1439160676043230  0.4915287614869744  1.2554229159999999
  2.6322604840621846  2.6324825729436516  1.0529264130000000
  2.6322794656196571  0.9266937551980524  3.3615527549999999
  4.6909502644107635  2.4737270419416189  0.9357499140000000
  4.6909692459682359  0.7679382241960198  3.2440992430000000
  3.7719437340222521  3.7742956269196331  3.6812257570000000
  2.0852771823557443  0.6502842924890070  1.3728764280000001
  5.7188892220810645  3.2038962289476203  1.4753712380000001
  0.6293982036385385  1.4981074112020216  3.7837205669999996
  2.7439879093672985  3.0440781419121095  3.1416044329999999
  2.7439689278098252  4.7498669596577088  0.8332551040000000
  0.6450737007168078  0.1500628845045913  8.1242589198345012
  0.7470958592467806  1.6791588612153081  5.9365066726273588
  4.3127515412573327  3.8517325362256414  5.7186675580328670
  4.2238051130852146  2.2774369003504913  7.9081344063416683
  6.3844984338268809  3.6631657653417271  5.5413700850673946
  1.2470704322643198  2.1308624186648735  7.9713767185390685
  3.7879949262947674  0.2896204324377210  8.2009001587228525
  3.7755910742269800  1.8719975398062167  5.9854176184401053
  2.3185062991338770  4.4205600500263289  6.0458570501340585
  2.3122274567842420  2.8596303216202008  8.3578527793203765
  4.4062385490658098  4.3753302499391626  7.9063066957555774
  2.7391370980194036  1.1308584232090417  5.4902202612138842
  6.0984151835557725  0.3056367379202637  9.7738482457737046
