Cu In Cu In Cu In Cu In Cu  H 
 1.0000000000000000
     5.7998405895632565    0.0000000000000000    0.0000000000000000
     2.3633008327565244    5.2965046251827825    0.0000000000000000
     0.0000000000000000    0.0000000000000000   24.8042922446771108
 Cu  In  Cu  In  Cu  In  Cu  In  Cu  H  
   1   2   2   2   1   1   1   1   1   1
Cartesian
  0.6450313048849616  0.4185167343015378  9.9999991945864615
  3.5449515996665903  0.4185167343015378  9.9999991945864615
  1.8266817212632238  3.0667690468929290  9.9999991945864615
  4.7266020160448523  3.0667690468929290  9.9999991945864615
  2.3633010080224262  1.5333845234464645 12.4021461223385554
  5.2632213028040544  1.5333845234464645 12.4021461223385554
  3.5449514244006881  4.1816368360378551 12.4021461223385554
  6.4448717191823164  4.1816368360378551 12.4021461223385554
  2.8791613808563334 -0.0231903429670113 15.1320766376155653
 -0.1680175483613098 -0.1090040831545239 14.6065392426952574
  1.1520260600217180  2.6387482964709910 15.1320731898189411
  4.1185089162497546  2.6722081593718805 14.6183284995605227
  2.0399891845900027  1.3236061772506229 16.3801029648232053
