Co Mo Co Mo Co Mo Co Mo  H 
 1.0000000000000000
     5.2712586269693631    0.0000000000000000    0.0000000000000000
     2.6088958153765289    4.5803756758610090    0.0000000000000000
     0.0000000000000000    0.0000000000000000   24.3110362795833090
 Co  Mo  Co  Mo  Co  Mo  Co  Mo  H  
   1   2   3   2   1   1   1   1   1
Cartesian
  1.2777135444578773  0.7426768196703992  9.9999992408479521
  3.9133428579425589  0.7426768196703992  9.9999992408479521
  2.5821614521461420  3.0328646576009035  9.9999992408479521
  5.2177907656308236  3.0328646576009035  9.9999992408479521
  2.6088953867554889  1.5164323310906398 12.1555181397916545
  6.5489726079284347  3.8066201690211439 12.1555181397916545
  5.2445247002401700  1.5164323310906398 12.1555181397916545
  3.9133432944437532  3.8066201690211439 12.1555181397916545
 -0.0130803314923395 -0.0076255651579464 14.2211420712622676
  2.6596428054548529  0.0275620029760585 14.2763336179111224
  3.9810331132619199  2.3140270031647368 14.2113367009996256
  1.3401484415293055  2.2973553792619916 14.2763771346660633
  1.9745733293785950  1.1477207369331046 15.6342666625171081
