Tl Ag Tl Ag Tl Ag Tl  H 
 1.0000000000000000
     6.8904515123841010    0.0000000000000000    0.0000000000000000
     3.4452257561920505    5.9673065777122076    0.0000000000000000
     0.0000000000000000    0.0000000000000000   25.6260291865253365
 Tl  Ag  Tl  Ag  Tl  Ag  Tl  H  
   1   1   3   1   3   1   2   1
Cartesian
  0.0000000000000000  0.0000000000000000  9.9999994219874502
  1.7226128780960253  2.9836532888561038  9.9999994219874502
  3.4452257561920505  0.0000000000000000  9.9999994219874502
  5.1678386342880760  2.9836532888561038  9.9999994219874502
  6.8904515158293265  3.9782043871305737 12.8130145932626682
  5.1678386377333014  0.9945510982744701 12.8130145932626682
  3.4452257596372764  3.9782043871305737 12.8130145932626682
  1.7226128815412509  0.9945510982744701 12.8130145932626682
  3.4347242050842168  1.9934692147178679 15.7889687197036803
  5.1678532282643790  4.9727989154623167 15.3905869312384809
  6.9005791669215188  1.9956985765860749 15.7883165628869122
  8.6130741783664995  4.9627625084965690 15.7894347546704630
  5.1672401882385479  0.9937571839381449 16.8103730667285696
