Mn Ga Mn Ga Mn Ga Mn Ga Mn  H 
 1.0000000000000000
     5.3295326228454929    0.0000000000000000    0.0000000000000000
     2.5719668179898791    4.6678586696701085    0.0000000000000000
     0.0000000000000000    0.0000000000000000   24.3743672751015694
 Mn  Ga  Mn  Ga  Mn  Ga  Mn  Ga  Mn  H  
   1   2   1   1   1   1   1   2   2   1
Cartesian
  3.8579502420033176  0.7048806364634429  9.9999990994645422
  1.1931839305805709  0.7048806364634429  9.9999990994645422
  5.1439336509982567  3.0388099712984973  9.9999990994645422
  2.4791673395755103  3.0388099712984973  9.9999990994645422
  2.5719668294498783  1.5194049879831779 12.1871836375507847
  5.2367331408726248  1.5194049879831779 12.1871836375507847
  6.5227165498675639  3.8533343228182320 12.1871836375507847
  3.8579502384448174  3.8533343228182320 12.1871836375507847
  4.0225484472942412  2.3760976637743494 14.5322461442180888
 -0.0621667245734846 -0.0364728411834971 14.5230273441504014
  2.6312510173764485  0.0198065692178295 14.3495294035422329
  6.6168009469762872  2.2950526864724372 14.3495381295657172
  1.9748917981334038  1.1666286936219190 15.4698854225228839
