Ga Pt Ga Pt Ga Pt Ga Pt Ga  H 
 1.0000000000000000
     5.4470896145263499    0.0000000000000000    0.0000000000000000
     1.7918128731989562    5.1439476359787681    0.0000000000000000
     0.0000000000000000    0.0000000000000000   24.4399922704574912
 Ga  Pt  Ga  Pt  Ga  Pt  Ga  Pt  Ga  H  
   1   2   2   1   1   1   1   2   1   1
Cartesian
  6.3071702377076084  2.5465160764944335  9.9999992133386471
  3.5836254304444339  2.5465160764944335  9.9999992133386471
  7.2030766743070869  5.1184898944838180  9.9999992133386471
  4.4795318670439119  5.1184898944838180  9.9999992133386471
  2.6877191554411466  3.8452318588085745 12.2199961352287456
  5.4112639627043215  3.8452318588085745 12.2199961352287456
  4.5153575261048431  1.2732580408191905 12.2199961352287456
  1.7918127188416682  1.2732580408191905 12.2199961352287456
  2.2557036141873295 -0.3980247742694723 14.8559953794313877
 -0.3009120641207798 -0.2134997935407853 14.3019947670430323
  3.0343685439519823  2.1564947497759901 14.8237164307201255
  0.3658081303036674  2.2614705041506813 14.8567221270415413
  2.1669526959496483  1.5379647014076645 16.0800350968690431
