Ir Co Ir Co Ir Co  H 
 1.0000000000000000
     5.3718386198516290    0.0000000000000000    0.0000000000000000
    -2.6859198099257791    4.6521486707818562    0.0000000000000000
     0.0000000000000000    0.0000000000000000   24.3860862742722517
 Ir  Co  Ir  Co  Ir  Co  H  
   3   1   3   1   3   1   1
Cartesian
  0.0000000000000000  0.0000000000000000  9.9999992923310419
 -1.3429597049629038  2.3260745353909140  9.9999992923310419
  1.3429597049629038  2.3260745353909140  9.9999992923310419
  2.6859195099258004  0.0000000000000000  9.9999992923310419
  2.6859195099258004  1.5507163902606071 12.1930433371361104
  1.3429597049629038  3.8767908256515282 12.1930433371361104
 -1.3429597049629038  3.8767908256515282 12.1930433371361104
  0.0000000000000000  1.5507163902606071 12.1930433371361104
 -0.0001093999922581  3.0877666814883216 14.3365660854456500
  1.3309612058120004  0.7822854446400835 14.3365165854491536
  4.0407706140471866  0.7823429446360145 14.3365590854461455
  2.6858800099285958  3.1017349804998280 14.3438078849331720
  2.6858625099298341  3.1016009805093114 15.8318007796325251
