 W Al  W Al  W Al  W  H 
 1.0000000000000000
     5.6826425978569945    0.0000000000000000    0.0000000000000000
     2.6099518153017986    4.7802716617149894    0.0000000000000000
     0.0000000000000000    0.0000000000000000   24.5629362617571267
 W   Al  W   Al  W   Al  W   H  
   2   2   1   2   2   2   1   1
Cartesian
  1.0736066453492068  0.9651438611587841  9.9999994350144963
  2.3785825530001063  3.3552796920162788  9.9999994350144963
  3.9149279442777045  0.9651438611587841  9.9999994350144963
  5.2199038519286036  3.3552796920162788  9.9999994350144963
  5.4512732261977748  1.6776398483982751 12.2814681308785634
  2.6099519272692779  1.6776398483982751 12.2814681308785634
  3.9149278349201770  4.0677756792557700 12.2814681308785634
  6.7562491338486739  4.0677756792557700 12.2814681308785634
  6.1059584562954017  5.2543824564800223 14.5408021332338393
  0.6658877299542690  0.4525404355465878 14.6596861552302720
  1.9022829266911319  2.8876511941986585 14.7032165171845488
  4.8052696796332102  2.8801820197272288 14.5095404175577105
  4.2390624738007823  1.6712743573889173 15.8594822799071906
