Pt Cd Pt Cd Pt Cd  H 
 1.0000000000000000
     5.7412095937123899    0.0000000000000000    0.0000000000000000
    -2.8706047968561950    4.9720336481445875    0.0000000000000000
     0.0000000000000000    0.0000000000000000   24.6876762529296627
 Pt  Cd  Pt  Cd  Pt  Cd  H  
   3   1   3   1   3   1   1
Cartesian
  0.0000000000000000  0.0000000000000000  9.9999992033888727
 -1.4353023984280975  2.4860168240722937  9.9999992033888727
  1.4353023984280975  2.4860168240722937  9.9999992033888727
  2.8706047968561950  0.0000000000000000  9.9999992033888727
  2.8706047997267996  1.6573445477241846 12.3438381264648314
  1.4353024012987023  4.1433613717964786 12.3438381264648314
 -1.4353023955574926  4.1433613717964786 12.3438381264648314
  0.0000000028706048  1.6573445477241846 12.3438381264648314
 -0.0176657076610627  3.2611721140732004 14.7235638704353633
  1.4146112254532024  0.7611819811048002 14.6168455141651279
  4.2875089638205628  0.7744241474809130 14.6137121296074302
  2.8485118271820618  3.2641671229538667 14.9517680843430814
 -0.0095399268510690  2.7990651812691878 16.2241618580418923
