 W  N  H 
 1.0000000000000000
     5.3345500000000001    0.0000000000000000    0.0000000000000000
     0.0000000000000000    8.6079899999999991    0.0000000000000000
     0.0000000000000000    0.0000000000000000   28.4849999999999994
 W   N   H  
  16  24   1
Cartesian
  0.9477400000000000  1.4489799999999999  2.9880800000000001
  0.1599300000000000  5.7529800000000000  0.6144200000000000
  1.0520799999999999  4.3039899999999998  2.9194300000000002
  0.2642200000000000  0.0000000000000000  0.5457700000000000
  0.9477400000000000  7.1590100000000003  2.9880800000000001
  0.1599300000000000  2.8550100000000000  0.6144200000000000
  3.8052899999999998  4.3039899999999998  3.7976200000000002
  3.0174300000000001  0.0000000000000000  1.4236800000000001
  2.3792800000000001  1.4773099999999999  7.8854100000000003
  1.7314600000000000  5.7652099999999997  5.3659499999999998
  2.5071200000000000  4.3133999999999997  7.7012200000000002
  1.8260300000000000  0.0050800000000000  5.2973699999999999
  2.3792000000000000  7.1509900000000002  7.8844500000000002
  1.7308300000000001  2.8532899999999999  5.3664699999999996
 -0.1607400000000000  4.3153800000000002  8.4719700000000007
  4.5142100000000003  0.0085600000000000  6.3448300000000000
  1.6574400000000000  4.3039899999999998  0.9525400000000001
  2.4453000000000000  0.0000000000000000  3.3261900000000000
  2.4756000000000000  2.8548399999999998  3.3769000000000000
  1.6877400000000000  7.1588300000000000  1.0029600000000001
  2.4756000000000000  5.7531499999999998  3.3769000000000000
  1.6877400000000000  1.4491600000000000  1.0029600000000001
  0.0291800000000000  2.9377300000000002  4.1331699999999998
  4.5759200000000000  7.2417299999999996  1.7595200000000000
  4.5887300000000000  4.3039899999999998  1.8384199999999999
  0.0419800000000000  0.0000000000000000  4.2120800000000003
  0.0291800000000000  5.6702599999999999  4.1331699999999998
  4.5759200000000000  1.3662600000000000  1.7595200000000000
  3.2118799999999998  4.3096199999999998  5.7238699999999998
  4.0084099999999996  0.0125100000000000  8.1259300000000003
  3.9470800000000001  2.9296700000000002  8.2036899999999999
  3.2225600000000001  7.1799799999999996  5.8459700000000003
  3.9479199999999999  5.7004999999999999  8.1980599999999999
  3.2225000000000001  1.4425600000000001  5.8446199999999999
  1.4780199999999999  2.9487899999999998  8.7655200000000004
  0.8058800000000000  7.2531999999999996  6.4989600000000003
  0.8038700000000000  4.3120099999999999  6.4983599999999999
  1.6093900000000001  0.0104900000000000  8.8234600000000007
  1.4806100000000000  5.6799200000000001  8.7647300000000001
  0.8058300000000000  1.3683500000000000  6.4988000000000001
  5.1752099999999999  4.3380700000000001 10.2045200000000005
