Tc Sc Tc Sc Tc Sc Tc  H 
 1.0000000000000000
     5.6407206008236850    0.0000000000000000    0.0000000000000000
     2.8203598004118779    4.8850076543031475    0.0000000000000000
     0.0000000000000000    0.0000000000000000   24.6056272587360176
 Tc  Sc  Tc  Sc  Tc  Sc  Tc  H  
   1   1   3   1   3   1   2   1
Cartesian
  0.0000000000000000  0.0000000000000000  9.9999991300046815
  1.4101799002059390  2.4425038271515738  9.9999991300046815
  2.8203603004118425  0.0000000000000000  9.9999991300046815
  4.2305402006177815  2.4425038271515738  9.9999991300046815
  5.6407202703107355  3.2566717711637674 12.3028136293680088
  4.2305403701047961  0.8141679440121937 12.3028136293680088
  2.8203599698988926  3.2566717711637674 12.3028136293680088
  1.4101800696929538  0.8141679440121937 12.3028136293680088
  2.6718487634015289  1.7038537098530253 14.2954034313509730
  4.0222024325636454  4.1832527004055153 14.8958632883435858
  5.6054504601632900  1.8542697244844062 14.5220343485976340
  6.8323210600092272  3.9893397911339865 14.5218141774449219
  2.2910236276863767  5.1889442817904943 15.5882620223772097
