Ta  N  H 
 1.0000000000000000
     5.3044300000000000    0.0000000000000000    0.0000000000000000
     0.0000000000000000    9.7099200000000003    0.0000000000000000
     0.0000000000000000    0.0000000000000000   27.3815999999999988
 Ta  N   H  
  16  20   1
Cartesian
  1.9877300000000000  3.9844700000000000  0.1593600000000000
  1.1268700000000000  8.8394300000000001  2.1152299999999999
  4.6432900000000004  6.7384899999999996  3.6628400000000001
  0.1997100000000000  1.8835299999999999  1.7072400000000001
  3.0497800000000002  2.9714299999999998  2.9615900000000002
  3.9106399999999999  7.8263900000000000  1.0057300000000000
  2.1226200000000000  5.7254500000000004  2.5536099999999999
  2.9834800000000001  0.8704900000000000  0.5977400000000000
  0.3030600000000000  3.9094199999999999  4.0042799999999996
  4.8532000000000002  8.8496900000000007  5.9659000000000004
  2.6043300000000000  6.5292500000000002  7.3793600000000001
  3.7375200000000000  1.9794099999999999  5.8626300000000002
  1.1649700000000001  2.8795700000000002  7.2224100000000000
  2.2386400000000002  7.9209600000000000  4.9220600000000001
  0.3117200000000000  5.7012600000000004  6.2782700000000000
  1.2472799999999999  0.9235000000000000  4.5285700000000002
  3.8465600000000002  4.8549600000000002  3.3123499999999999
  4.7074199999999999  0.0000000000000000  1.3564799999999999
  4.7983300000000000  1.9357700000000000  3.7312900000000000
  0.3547600000000000  6.7907299999999999  1.7754200000000000
  2.9356300000000002  5.8948900000000002  0.5766600000000000
  2.0747700000000000  1.0399300000000000  2.5325199999999999
  1.1747200000000000  3.8150300000000001  2.1363099999999999
  2.0355799999999999  8.6699900000000003  0.1804400000000000
  2.8947300000000000  7.7741499999999997  2.8934099999999998
  3.7555900000000002  2.9191900000000000  0.9375500000000000
  1.6485300000000001  4.8494000000000002  7.6511399999999998
  3.0307100000000000  0.0522500000000000  5.3611500000000003
  2.8750200000000001  2.1050399999999998  7.5295199999999998
  3.8139300000000000  6.7122700000000002  5.7902300000000002
  1.1624500000000000  5.9020200000000003  4.4691099999999997
  0.2742600000000000  1.0572699999999999  6.4244700000000003
  4.8809199999999997  3.8191199999999998  6.0236400000000003
  0.3138300000000000  8.6835199999999997  4.0976600000000003
  1.1494300000000000  7.7667000000000002  6.8643000000000001
  2.0659500000000000  2.9046599999999998  4.8453400000000002
  0.4258000000000000  2.6341199999999998  8.8131199999999996
