Re  N  H 
 1.0000000000000000
     5.0895099999999998    0.0000000000000000    0.0000000000000000
     1.6866984650000001    4.8298001519999998    0.0000000000000000
     0.0000000000000000    0.0000000000000000   27.7012999999999998
 Re  N   H  
   8  16   1
Cartesian
  5.8306300000000002  3.6155400000000002  3.5637699999999999
  4.1439199999999996  0.4915300000000000  1.2554200000000000
  2.6322600000000000  2.6324800000000002  1.0529299999999999
  2.6322800000000002  0.9266900000000000  3.3615499999999998
  0.7623799999999999  0.0119000000000000  7.9762399999999998
  0.7488200000000000  1.6442200000000000  5.9209899999999998
  4.3002500000000001  3.7923600000000000  5.7753199999999998
  4.3562500000000002  2.1950400000000001  8.0055200000000006
  4.6909500000000000  2.4737300000000002  0.9357500000000000
  4.6909700000000001  0.7679400000000000  3.2441000000000000
  3.7719399999999998  3.7743000000000002  3.6812299999999998
  2.0852800000000000  0.6502800000000000  1.3728800000000001
  5.7188900000000000  3.2039000000000000  1.4753700000000001
  0.6294000000000000  1.4981100000000001  3.7837200000000002
  2.7439900000000002  3.0440800000000001  3.1415999999999999
  2.7439700000000000  4.7498699999999996  0.8332600000000000
  1.2791600000000001  3.5995499999999998  5.5413300000000003
  1.3369300000000000  2.0448599999999999  7.9561000000000002
  3.9123700000000001  0.1991800000000000  8.2417899999999999
  3.7831399999999999  1.8056900000000000  5.9786999999999999
  2.3000200000000000  4.3632099999999996  6.0355499999999997
  2.3624999999999998  2.8162099999999999  8.3401800000000001
  4.5267700000000000  4.2788399999999998  7.9998399999999998
  2.7556900000000000  1.0718300000000001  5.4619799999999996
  4.5918200000000002  2.2780300000000002  9.6818899999999992
