Re  N  H 
 1.0000000000000000
     5.0895099999999998    0.0000000000000000    0.0000000000000000
     1.6866984650000001    4.8298001519999998    0.0000000000000000
     0.0000000000000000    0.0000000000000000   27.7012999999999998
 Re  N   H  
   8  16   1
Cartesian
  5.8306300000000002  3.6155400000000002  3.5637699999999999
  4.1439199999999996  0.4915300000000000  1.2554200000000000
  2.6322600000000000  2.6324800000000002  1.0529299999999999
  2.6322800000000002  0.9266900000000000  3.3615499999999998
  2.4694400000000001  4.8282499999999997  7.9704300000000003
  0.7610500000000000  1.6334000000000000  5.9151400000000001
  4.3082200000000004  3.7810000000000001  5.7751200000000003
  4.3742400000000004  2.1802500000000000  8.0014599999999998
  4.6909500000000000  2.4737300000000002  0.9357500000000000
  4.6909700000000001  0.7679400000000000  3.2441000000000000
  3.7719399999999998  3.7743000000000002  3.6812299999999998
  2.0852800000000000  0.6502800000000000  1.3728800000000001
  5.7188900000000000  3.2039000000000000  1.4753700000000001
  0.6294000000000000  1.4981100000000001  3.7837200000000002
  2.7439900000000002  3.0440800000000001  3.1415999999999999
  2.7439700000000000  4.7498699999999996  0.8332600000000000
  1.2866400000000000  3.5903600000000000  5.5394500000000004
  1.3564200000000000  2.0317500000000002  7.9488700000000003
  3.9292099999999999  0.1850900000000000  8.2441399999999998
  3.7952900000000001  1.7924400000000000  5.9746300000000003
  2.3083200000000001  4.3517599999999996  6.0331500000000000
  2.3817300000000001  2.8026399999999998  8.3340999999999994
  4.5440100000000001  4.2641200000000001  8.0038599999999995
  2.7654500000000000  1.0589900000000001  5.4600900000000001
  4.6079100000000004  2.2590699999999999  9.6795000000000009
