Co Mo Co Mo Co Mo Co  H 
 1.0000000000000000
     5.2712595874080055    0.0000000000000000    0.0000000000000000
     2.6088939650766694    4.5803766783247877    0.0000000000000000
     0.0000000000000000    0.0000000000000000   24.3110386746065466
 Co  Mo  Co  Mo  Co  Mo  Co  H  
   1   2   2   2   2   2   1   1
Cartesian
  0.0000000000000000  0.0000000000000000 10.0000000000000000
  1.3044477850000000  2.2901877609999999 10.0000000000000000
  2.6356297170000000  0.0000000000000000 10.0000000000000000
  3.9400775019999998  2.2901877609999999 10.0000000000000000
  5.2712594340000001  3.0639432430000002 12.1555190639999999
  3.9668116489999998  0.7737554820000000 12.1555190639999999
  2.6356297170000000  3.0639432430000002 12.1555190639999999
  1.3311819320000000  0.7737554820000000 12.1555190639999999
  2.7079574559999999  1.5739660430000000 14.2214313550000000
  4.0313617749999997  3.8688681599999999 14.2423847279999993
  5.3570590999999999  1.5883777189999999 14.2423354389999997
  6.6169798909999997  3.8461840899999999 14.2549817809999997
 -0.1444312370000000 -0.0837224020000000 15.3534135460000005
