Co Mo Co Mo Co Mo  H 
 1.0000000000000000
     5.2712586269693631    0.0000000000000000    0.0000000000000000
     2.6088958153765289    4.5803756758610090    0.0000000000000000
     0.0000000000000000    0.0000000000000000   24.3110362795833090
 Co  Mo  Co  Mo  Co  Mo  H  
   2   2   2   2   2   2   1
Cartesian
  0.0000000000000000  0.0000000000000000  9.9999992923310419
  3.9400772211729462  2.2901876379305186  9.9999992923310419
  2.6356295134846675  0.0000000000000000  9.9999992923310419
  1.3044477076882783  2.2901876379305186  9.9999992923310419
  5.2712590269693349  3.0639429831742508 12.1555182397916468
  1.3311818057963893  0.7737554452437252 12.1555182397916468
  2.6356295134846675  3.0639429831742508 12.1555182397916468
  3.9668113192810570  0.7737554452437252 12.1555182397916468
  2.7121966080662516  1.5723593887289991 14.2257879932850724
  6.6498492294107789  3.8693973261747434 14.2261846932570002
  5.3786361193705909  1.5940766871921332 14.3249033862709823
  4.0452591137295499  3.8835559251727831 14.2542887912681593
  5.3599544206926373  1.5839461879090373 16.0815313619598683
