Mn  V Mn  V Mn  V Mn  H 
 1.0000000000000000
     4.9818716474483837    0.0000000000000000    0.0000000000000000
     1.6607738824721794    4.6969016676148252    0.0000000000000000
     0.0000000000000000    0.0000000000000000   24.0677262968015988
 Mn  V   Mn  V   Mn  V   Mn  H  
   1   2   1   2   3   2   1   1
Cartesian
  2.4911600927225730  0.0001585767941020  9.9999994801222289
  3.3215470339586628  2.3486094106015147  9.9999994801222289
  0.0002242689983812  0.0001585767941020  9.9999994801222289
  0.8306112102344709  2.3486094106015147  9.9999994801222289
  4.9820962819396124  3.5227555391081697 12.0338631484007994
  1.6607735169793314  1.1743047053007574 12.0338631484007994
  4.1517093407035235  1.1743047053007574 12.0338631484007994
  2.4911604582154210  3.5227555391081697 12.0338631484007994
  4.1544216400953058  4.6933321867389965 14.0342473097433000
  3.3223766932949546  2.3491820286714202 14.1669959107345491
 -0.0008175623850576 -0.0005943412401183 14.1669923727787825
  0.8279097166372352  2.3521776186169916 14.0342331338525117
  1.6606670616288688  1.1742196256239501 15.1028074011872864
