Ta  N  H 
 1.0000000000000000
     5.3044300000000000    0.0000000000000000    0.0000000000000000
     0.0000000000000000    9.7099200000000003    0.0000000000000000
     0.0000000000000000    0.0000000000000000   27.3815999999999988
 Ta  N   H  
  16  20   1
Cartesian
  1.9877300000000000  3.9844700000000000  0.1593600000000000
  1.1268700000000000  8.8394300000000001  2.1152299999999999
  4.6432900000000004  6.7384899999999996  3.6628400000000001
  0.1997100000000000  1.8835299999999999  1.7072400000000001
  3.0497800000000002  2.9714299999999998  2.9615900000000002
  3.9106399999999999  7.8263900000000000  1.0057300000000000
  2.1226200000000000  5.7254500000000004  2.5536099999999999
  2.9834800000000001  0.8704900000000000  0.5977400000000000
  0.2647800000000000  3.9418299999999999  3.9841199999999999
  4.8980300000000003  8.8417300000000001  5.9813000000000001
  2.6561800000000000  6.4611000000000001  7.3672899999999997
  3.8488000000000002  1.9298299999999999  5.8096800000000002
  1.3460500000000000  2.8778500000000000  6.8249700000000004
  2.1957800000000001  7.8936900000000003  4.9395100000000003
  0.3066000000000000  5.7091900000000004  6.2991000000000001
  1.2810699999999999  0.8799800000000000  4.5198400000000003
  3.8465600000000002  4.8549600000000002  3.3123499999999999
  4.7074199999999999  0.0000000000000000  1.3564799999999999
  4.7983300000000000  1.9357700000000000  3.7312900000000000
  0.3547600000000000  6.7907299999999999  1.7754200000000000
  2.9356300000000002  5.8948900000000002  0.5766600000000000
  2.0747700000000000  1.0399300000000000  2.5325199999999999
  1.1747200000000000  3.8150300000000001  2.1363099999999999
  2.0355799999999999  8.6699900000000003  0.1804400000000000
  2.8947300000000000  7.7741499999999997  2.8934099999999998
  3.7555900000000002  2.9191900000000000  0.9375500000000000
  1.6605600000000000  4.7927299999999997  7.6060900000000000
  3.0624600000000002  0.0074800000000000  5.3482000000000003
  2.9437500000000001  2.0745700000000000  7.4780899999999999
  3.8511899999999999  6.7721799999999996  5.7731899999999996
  1.1545799999999999  5.8891000000000000  4.4591799999999999
  0.3511800000000000  1.0460499999999999  6.4663100000000000
  4.8413700000000004  3.8436900000000001  5.9980099999999998
  0.3073400000000000  8.6844599999999996  4.0717400000000001
  1.1706000000000001  7.7884000000000002  6.9602700000000004
  2.0683600000000002  2.9254099999999998  4.9295600000000004
  1.7359199999999999  7.9728599999999998  8.1556899999999999
