Ni  N  H 
 1.0000000000000000
     4.6055400000000004    0.0000000000000000    0.0000000000000000
     0.0000000000000000    8.6026199999999999    0.0000000000000000
     0.0000000000000000    0.0000000000000000   31.9081000000000010
 Ni  N   H  
  24   8   1
Cartesian
  1.1710499999999999  2.1506500000000002  3.3238699999999999
  4.2020499999999998  0.0000000000000000  3.3238699999999999
  1.9288000000000001  0.0000000000000000  2.0111699999999999
  3.4443000000000001  2.1506500000000002  2.0111699999999999
  1.1415299999999999  2.1506500000000002  0.6477300000000000
  4.2315699999999996  0.0000000000000000  0.6477300000000000
  3.5345399999999998  2.1349200000000002  7.1667300000000003
  1.8983900000000000  0.0913500000000000  7.1751500000000004
  4.2217300000000000  0.0169500000000000  6.0095999999999998
  1.1692700000000000  2.1256200000000001  6.0069600000000003
  3.4398800000000000  2.1545200000000002  4.5954100000000002
  1.9306200000000000  8.5889600000000002  4.6177000000000001
  1.1710499999999999  6.4519599999999997  3.3238699999999999
  4.2020499999999998  4.3013100000000000  3.3238699999999999
  1.9288000000000001  4.3013100000000000  2.0111699999999999
  3.4443000000000001  6.4519599999999997  2.0111699999999999
  1.1415299999999999  6.4519599999999997  0.6477300000000000
  4.2315699999999996  4.3013100000000000  0.6477300000000000
  3.4747100000000000  6.3606100000000003  7.1751500000000004
  1.8385600000000000  4.3170500000000001  7.1667300000000003
  4.2038300000000000  4.3263499999999997  6.0069600000000003
  1.1513700000000000  6.4350100000000001  6.0095999999999998
  3.4424800000000002  6.4656200000000004  4.6177000000000001
  1.9332199999999999  4.2974500000000004  4.5954100000000002
  0.3837800000000000  3.2259799999999998  1.9942599999999999
  2.6865500000000000  1.0753299999999999  0.6646500000000000
  2.6865500000000000  3.2259799999999998  6.0030200000000002
  0.3815300000000000  1.0618099999999999  4.6497599999999997
  0.3837800000000000  7.5272899999999998  1.9942599999999999
  2.6865500000000000  5.3766400000000001  0.6646500000000000
  2.6865500000000000  7.5272899999999998  6.0785900000000002
  0.3860300000000000  5.3901599999999998  4.6497599999999997
  0.3837800000000000  3.2259799999999998  7.2168200000000002
