Mo  N  H 
 1.0000000000000000
     4.9934599999999998    0.0000000000000000    0.0000000000000000
    -6.3573029641326633    7.7021600936769712    0.0000000000000000
     0.0000000000000000    0.0000000000000000   30.0394000000000005
 Mo  N   H  
  16   8   1
Cartesian
  0.5998877038966546  2.0704561655818026  0.4217531760000421
 -1.8968557961042161  3.2470381414918466  1.3604844260000419
  3.9399113877320242  0.4964812396383936  2.3944405739999581
  1.4431678877311080  1.6730632155484924  3.3331718239999581
 -1.2416229829542138  2.9457966008897869  4.2131187722584809
  4.3701813543929120  0.2902410274282345  4.9975933678567008
  2.1616699702141773  1.3357810292058003  6.0719350768779865
 -0.5732246430867607  2.5410552599175693  6.7929344200226218
 -2.5787637781696766  5.9215362124202882  0.4217531760000421
 -5.0755072781705479  7.0981181883303330  1.3604844260000419
  0.7612599056656930  4.3475612864768793  2.3944405739999581
 -1.7354835943352240  5.5241432623869784  3.3331718239999581
 -4.4317507852238371  6.7911568662395787  4.2034795390725748
  1.1833576328002922  4.1533059499329248  5.0626671302687134
 -0.9882524395931853  5.1714116575376945  6.0415172897348510
 -3.6993514530875524  6.5369383299210586  6.8005151493554985
  2.2698586852569163  1.2834879580103382  1.4082470720000482
 -0.2268848147440004  2.4600699339204377  2.3466779279999521
  0.4559636092548052  2.1418403946673767  5.1638298685890129
 -2.2501903548626045  3.4390366491532691  6.1567207896172311
 -0.9087927968094154  5.1345680048488243  1.4082470720000482
 -3.4055362968102965  6.3111499807589233  2.3466779279999521
 -2.7394168927412008  5.9950500728150455  5.1691158275947071
 -5.4513698207427774  7.2477155462528486  6.1336668688045499
 -1.7836724150694503  0.7896504505666857  7.5395557430222802
