Al Tc Al Tc Al  H 
 1.0000000000000000
     5.2849346260015553    0.0000000000000000    0.0000000000000000
     1.7499008761649382    4.9868206470981580    0.0000000000000000
     0.0000000000000000    0.0000000000000000   24.3114782795520270
 Al  Tc  Al  Tc  Al  H  
   2   4   3   2   1   1
Cartesian
  7.0172189444851583  4.9743327056887221  9.9999993229527995
  3.4998011934019120  2.4809223821396431  9.9999993229527995
  6.1422685064026892  2.4809223821396431  9.9999993229527995
  4.3747516314843811  4.9743327056887221  9.9999993229527995
  4.3923679061843153  1.2404611885764112 12.1557391397760135
  2.6248510312660072  3.7338715121254902 12.1557391397760135
  5.2673183442667852  3.7338715121254902 12.1557391397760135
  1.7499005931835381  1.2404611885764112 12.1557391397760135
  0.1319290385996958 -0.1855301740367046 14.3231391062542741
  2.8299602205612815  0.1329088984779002 14.2872945057936871
  0.6794281205463716  2.3548095677209941 14.3018025506373565
  3.3860365316483167  2.6793285370607967 14.3231392278116676
  4.4279341554775504  1.2656735214962656 15.1473227502126733
