Mn Ti Mn Ti Mn Ti Mn Ti  H 
 1.0000000000000000
     5.1622226346855031    0.0000000000000000    0.0000000000000000
     1.7234458780370765    4.8660336556458788    0.0000000000000000
     0.0000000000000000    0.0000000000000000   24.2157612863256233
 Mn  Ti  Mn  Ti  Mn  Ti  Mn  Ti  H  
   1   2   1   2   2   1   2   1   1
Cartesian
  2.5851691313109897  0.0028676168917096  9.9999992638920734
  3.4468920703295280  2.4358844447146488  9.9999992638920734
  0.0040578139682381  0.0028676168917096  9.9999992638920734
  0.8657807529867763  2.4358844447146488  9.9999992638920734
  5.1662802880832199  3.6509590477472469 12.1078806431628117
  1.7234460317219298  1.2179422199243077 12.1078806431628117
  4.3045573490646811  1.2179422199243077 12.1078806431628117
  2.5851689707404679  3.6509590477472469 12.1078806431628117
  0.0064349527082043 -0.0055880557294706 14.2672344634454937
  2.5784602020683272 -0.0018772379278097 14.1911990071303808
  6.0299616663317535  2.4372708944879502 14.1907019544142177
  3.4397131836563117  2.4409446574433238 14.2672473704462597
  4.3010438302724170  1.2154535891978344 15.4489536615402958
