Mo  N  H 
 1.0000000000000000
     4.9934599999999998    0.0000000000000000    0.0000000000000000
    -6.3573029639999996    7.7021600939999999    0.0000000000000000
     0.0000000000000000    0.0000000000000000   30.0394000000000005
 Mo  N   H  
  16   8   1
Cartesian
  0.5998900000000000  2.0704600000000002  0.4217500000000000
 -1.8968600000000000  3.2470400000000001  1.3604799999999999
  3.9399099999999998  0.4964800000000000  2.3944399999999999
  1.4431700000000001  1.6730600000000000  3.3331700000000000
 -1.2494300000000000  2.9469799999999999  4.2126999999999999
  4.3705999999999996  0.2893300000000000  5.0006800000000000
  2.1529099999999999  1.3363700000000001  6.0711800000000000
 -0.5824300000000000  2.5368599999999999  6.7937500000000002
 -2.5787599999999999  5.9215400000000002  0.4217500000000000
 -5.0755100000000004  7.0981199999999998  1.3604799999999999
  0.7612600000000000  4.3475599999999996  2.3944399999999999
 -1.7354799999999999  5.5241400000000001  3.3331700000000000
 -4.4342300000000003  6.7911200000000003  4.2101899999999999
  1.1802299999999999  4.1525499999999997  5.0630600000000001
 -0.9905100000000000  5.1690600000000000  6.0423600000000004
 -3.6999700000000000  6.5397200000000000  6.8016600000000000
  2.2698600000000000  1.2834900000000000  1.4082500000000000
 -0.2268800000000000  2.4600700000000000  2.3466800000000001
  0.4476000000000000  2.1425299999999998  5.1613199999999999
 -2.2553100000000001  3.4389599999999998  6.1574900000000001
 -0.9087900000000000  5.1345700000000001  1.4082500000000000
 -3.4055399999999998  6.3111499999999996  2.3466800000000001
 -2.7396799999999999  5.9961700000000002  5.1698800000000000
 -5.4519200000000003  7.2465599999999997  6.1394000000000002
  3.2039300000000002  0.8078600000000000  7.5433800000000000
