Ni  N  H 
 1.0000000000000000
     4.3013100000000000    0.0000000000000000    0.0000000000000000
     0.0000000000000000    7.9770300000000001    0.0000000000000000
     0.0000000000000000    0.0000000000000000   27.6332999999999984
 Ni  N   H  
  24   8   1
Cartesian
  2.1506500000000002  1.3124600000000000  0.3642100000000000
  2.1506500000000002  5.3009800000000000  2.6668900000000000
  0.0000000000000000  2.6760500000000000  1.1514800000000001
  0.0000000000000000  6.6645700000000003  3.4541599999999999
  0.0000000000000000  3.9885199999999998  3.4245899999999998
  0.0000000000000000  0.0000000000000000  1.1219100000000000
  2.1506500000000002  6.6645700000000003  0.3642100000000000
  2.1506500000000002  2.6760500000000000  2.6668900000000000
  2.1506500000000002  3.9885199999999998  0.3935000000000000
  2.1506500000000002  0.0000000000000000  2.6964600000000001
  0.0000000000000000  5.3009800000000000  1.1514800000000001
  0.0000000000000000  1.3124600000000000  3.4541599999999999
  2.1503000000000001  1.3143300000000000  4.9388399999999999
  2.1647200000000000  5.3025000000000002  7.3455399999999997
  0.0328400000000000  2.7110599999999998  5.7152599999999998
  0.0757200000000000  6.6795799999999996  7.9852200000000000
  0.0168700000000000  3.9961300000000000  8.0600600000000000
  0.0143300000000000  0.0116800000000000  5.7033600000000000
  2.1706500000000002  6.6620900000000001  4.9431099999999999
  2.1495099999999998  2.6798199999999999  7.3352399999999998
  2.1611500000000001  3.9950500000000000  4.9962999999999997
  2.1629200000000002  0.0197200000000000  7.2168999999999999
  0.0064200000000000  5.3112500000000002  5.7390999999999996
 -0.0489800000000000  1.3599100000000000  7.9518800000000001
  1.0753299999999999  5.3180500000000004  4.2118700000000002
  1.0753299999999999  1.3295300000000001  1.9091800000000001
  3.2259799999999998  2.6589800000000001  4.2118700000000002
  3.2259799999999998  6.6475000000000000  1.9091800000000001
  0.9705600000000000  5.3308000000000000  8.6664899999999996
  1.0984200000000000  1.3604200000000000  6.5027999999999997
  3.2844799999999998  2.6576800000000000  8.8028099999999991
  3.2213699999999998  6.6489500000000001  6.5235599999999998
  2.8853000000000000  2.7371500000000002  9.7421000000000006
