Ir Mo Ir Mo Ir Mo  H 
 1.0000000000000000
     5.5092876101247903    0.0000000000000000    0.0000000000000000
    -2.7546438050623951    4.7711826623581892    0.0000000000000000
     0.0000000000000000    0.0000000000000000   24.4983132663302960
 Ir  Mo  Ir  Mo  Ir  Mo  H  
   3   1   3   1   3   1   1
Cartesian
  0.0000000000000000  0.0000000000000000  9.9999992923310419
 -1.3773219025311976  2.3855915311790810  9.9999992923310419
  1.3773219025311976  2.3855915311790810  9.9999992923310419
  2.7546438050623951  0.0000000000000000  9.9999992923310419
  2.7546438050623951  1.5903943874527180 12.2491565331651540
  1.3773219025311976  3.9759859186317987 12.2491565331651540
 -1.3773219025311976  3.9759859186317987 12.2491565331651540
  0.0000000000000000  1.5903943874527180 12.2491565331651540
  0.0000109999992216  3.1413264776980609 14.4123120800853410
  1.3430947049533504  0.8149728423268977 14.4123754800808541
  4.1662082051703573  0.8149894423257230 14.4122634800887788
  2.7546546050616310  3.1807921749051959 14.5347695714194032
  2.7546593050612982  3.1807807749060024 16.2626768491407603
