Cr  N  H 
 1.0000000000000000
     5.4626999999999999    0.0000000000000000    0.0000000000000000
     0.0000000000000000   13.1242000000000001    0.0000000000000000
     0.0000000000000000    0.0000000000000000   37.8864000000000019
 Cr  N   H  
  48  64   1
Cartesian
  0.6828400000000000  5.7129599999999998  5.9989299999999997
  0.6828400000000000 12.2750599999999999  2.2102900000000001
  0.6828400000000000  4.2938400000000003  0.5993600000000000
  0.6828400000000000 10.8559400000000004  4.3879999999999999
  0.6828400000000000  3.1173899999999999  5.8587499999999997
  0.6828400000000000  9.6794899999999995  2.0701100000000001
  2.0485099999999998  7.4112400000000003  7.3571600000000004
  2.0485099999999998  0.8491400000000000  3.5685199999999999
  2.0485099999999998  8.8303600000000007  5.1794500000000001
  2.0485099999999998  2.2682600000000002  1.3908100000000001
  2.0485099999999998 10.0068099999999998  7.4973400000000003
  2.0485099999999998  3.4447100000000002  3.7086999999999999
  0.7331200000000000  5.5796200000000002 13.8269199999999994
  0.6851699999999999 12.2880199999999995  9.7991499999999991
  0.6831199999999999  4.2983399999999996  8.1732499999999995
  0.6929000000000000 10.8254000000000001 11.8910900000000002
  0.6596100000000000  3.2046800000000002 13.3698899999999998
  0.6799700000000000  9.7056199999999997  9.6023300000000003
  2.0485099999999998  7.5370499999999998 14.9456399999999991
  2.0485099999999998  0.8673000000000000 11.2015399999999996
  2.0485099999999998  8.7111999999999998 12.5888500000000008
  2.0485099999999998  2.2742100000000001  8.9811300000000003
  2.0485099999999998  9.9916300000000007 14.9938099999999999
  2.0485099999999998  3.4255000000000000 11.2568099999999998
  3.4141900000000001  5.7129599999999998  5.9989299999999997
  3.4141900000000001 12.2750599999999999  2.2102900000000001
  3.4141900000000001  4.2938400000000003  0.5993600000000000
  3.4141900000000001 10.8559400000000004  4.3879999999999999
  3.4141900000000001  3.1173899999999999  5.8587499999999997
  3.4141900000000001  9.6794899999999995  2.0701100000000001
  4.7798600000000002  7.4112400000000003  7.3571600000000004
  4.7798600000000002  0.8491400000000000  3.5685199999999999
  4.7798600000000002  8.8303600000000007  5.1794500000000001
  4.7798600000000002  2.2682600000000002  1.3908100000000001
  4.7798600000000002 10.0068099999999998  7.4973400000000003
  4.7798600000000002  3.4447100000000002  3.7086999999999999
  3.3639000000000001  5.5796200000000002 13.8269199999999994
  3.4118599999999999 12.2880199999999995  9.7991499999999991
  3.4139100000000000  4.2983399999999996  8.1732499999999995
  3.4041299999999999 10.8254000000000001 11.8910900000000002
  3.4374199999999999  3.2046800000000002 13.3698899999999998
  3.4170500000000001  9.7056199999999997  9.6023300000000003
  4.7798600000000002  7.5363300000000004 14.8879699999999993
  4.7798600000000002  0.8565199999999999 11.1969100000000008
  4.7798600000000002  8.7096800000000005 12.5973900000000008
  4.7798600000000002  2.2718400000000001  8.9781899999999997
  4.7798600000000002  9.9356700000000000 14.9242799999999995
  4.7798600000000002  3.4304899999999998 11.2503299999999999
  0.6828400000000000  4.5416299999999996  4.4311900000000000
  0.6828400000000000 11.1037300000000005  0.6425500000000000
  0.6828400000000000  6.2371400000000001  0.3686300000000000
  0.6828400000000000 12.7992399999999993  4.1572699999999996
  0.6828400000000000  2.3454299999999999  0.0799400000000000
  0.6828400000000000  8.9075299999999995  3.8685800000000001
  2.0485099999999998  8.5825700000000005  1.3476200000000000
  2.0485099999999998  2.0204700000000000  5.1362600000000000
  2.0485099999999998  6.8870600000000000  5.4101800000000004
  2.0485099999999998  0.3249600000000000  1.6215400000000000
  2.0485099999999998 10.7787699999999997  5.6992500000000001
  2.0485099999999998  4.2166699999999997  1.9106099999999999
  0.6828400000000000  8.7495100000000008  6.6782399999999997
  0.6828400000000000  2.1874099999999999  2.8896000000000002
  2.0485099999999998  4.3746900000000002  6.6782399999999997
  2.0485099999999998 10.9367900000000002  2.8896000000000002
  0.6814100000000000  4.5654700000000004 12.1241500000000002
  0.6822000000000000 11.1207300000000000  8.2247299999999992
  0.6829600000000000  6.2381900000000003  7.9438700000000004
  0.6861900000000000 12.7692599999999992 11.7639800000000001
  0.6829700000000000  2.3499599999999998  7.6663399999999999
  0.6825900000000000  8.7850599999999996 11.4229599999999998
  2.0485099999999998  8.5943699999999996  8.9181600000000003
  2.0485099999999998  2.0467300000000002 12.7804900000000004
  2.0485099999999998  6.9358199999999997 13.1972299999999994
  2.0485099999999998  0.3458100000000000  9.2351600000000005
  2.0485099999999998 10.5376499999999993 13.3050899999999999
  2.0485099999999998  4.2294900000000002  9.5067400000000006
  0.6955400000000000  8.8101800000000008 15.3378599999999992
  0.6820300000000000  2.1994899999999999 10.5026899999999994
  2.0485099999999998  4.2500700000000000 14.3003999999999998
  2.0485099999999998 10.9248200000000004 10.4639699999999998
  3.4141900000000001  4.5416299999999996  4.4311900000000000
  3.4141900000000001 11.1037300000000005  0.6425500000000000
  3.4141900000000001  6.2371400000000001  0.3686300000000000
  3.4141900000000001 12.7992399999999993  4.1572699999999996
  3.4141900000000001  2.3454299999999999  0.0799400000000000
  3.4141900000000001  8.9075299999999995  3.8685800000000001
  4.7798600000000002  8.5825700000000005  1.3476200000000000
  4.7798600000000002  2.0204700000000000  5.1362600000000000
  4.7798600000000002  6.8870600000000000  5.4101800000000004
  4.7798600000000002  0.3249600000000000  1.6215400000000000
  4.7798600000000002 10.7787699999999997  5.6992500000000001
  4.7798600000000002  4.2166699999999997  1.9106099999999999
  3.4141900000000001  8.7495100000000008  6.6782399999999997
  3.4141900000000001  2.1874099999999999  2.8896000000000002
  4.7798600000000002  4.3746900000000002  6.6782399999999997
  4.7798600000000002 10.9367900000000002  2.8896000000000002
  3.4156200000000001  4.5654700000000004 12.1241500000000002
  3.4148200000000002 11.1207300000000000  8.2247299999999992
  3.4140700000000002  6.2381900000000003  7.9438700000000004
  3.4108299999999998 12.7692599999999992 11.7639800000000001
  3.4140500000000000  2.3499599999999998  7.6663399999999999
  3.4144299999999999  8.7850599999999996 11.4229599999999998
  4.7798600000000002  8.5912100000000002  8.9186300000000003
  4.7798600000000002  2.0273200000000000 12.7655300000000000
  4.7798600000000002  6.9137199999999996 13.2124100000000002
  4.7798600000000002  0.3426300000000000  9.2329899999999991
  4.7798600000000002 10.5572300000000006 13.2660999999999998
  4.7798600000000002  4.2301799999999998  9.5052900000000005
  3.4014799999999998  8.8101800000000008 15.3378599999999992
  3.4149900000000000  2.1994899999999999 10.5026899999999994
  4.7798600000000002  4.3304700000000000 14.3117199999999993
  4.7798600000000002 10.9236799999999992 10.4749499999999998
  2.0485099999999998  6.0912100000000002 15.6704299999999996
