Cr  N  H 
 1.0000000000000000
     5.4626999999999999    0.0000000000000000    0.0000000000000000
     0.0000000000000000   13.1242000000000001    0.0000000000000000
     0.0000000000000000    0.0000000000000000   37.8864000000000019
 Cr  N   H  
  48  64   1
Cartesian
  0.6828400000000000  5.7129599999999998  5.9989299999999997
  0.6828400000000000 12.2750599999999999  2.2102900000000001
  0.6828400000000000  4.2938400000000003  0.5993600000000000
  0.6828400000000000 10.8559400000000004  4.3879999999999999
  0.6828400000000000  3.1173899999999999  5.8587499999999997
  0.6828400000000000  9.6794899999999995  2.0701100000000001
  2.0485099999999998  7.4112400000000003  7.3571600000000004
  2.0485099999999998  0.8491400000000000  3.5685199999999999
  2.0485099999999998  8.8303600000000007  5.1794500000000001
  2.0485099999999998  2.2682600000000002  1.3908100000000001
  2.0485099999999998 10.0068099999999998  7.4973400000000003
  2.0485099999999998  3.4447100000000002  3.7086999999999999
  0.6828400000000000  5.5319200000000004 13.7809799999999996
  0.6828400000000000 12.2686200000000003  9.7986500000000003
  0.6828400000000000  4.2912299999999997  8.1691900000000004
  0.6828400000000000 10.7966800000000003 11.8910999999999998
  0.6828400000000000  3.1725400000000001 13.3389900000000008
  0.6828400000000000  9.6959400000000002  9.6012799999999991
  2.1282199999999998  7.5083299999999999 14.9200599999999994
  2.0476899999999998  0.8348500000000000 11.1866099999999999
  2.0567600000000001  8.6804900000000007 12.5772200000000005
  2.0472199999999998  2.2521900000000001  8.9675600000000006
  1.9955600000000000  9.9008900000000004 14.9446899999999996
  2.0557300000000001  3.3960599999999999 11.2421000000000006
  3.4141900000000001  5.7129599999999998  5.9989299999999997
  3.4141900000000001 12.2750599999999999  2.2102900000000001
  3.4141900000000001  4.2938400000000003  0.5993600000000000
  3.4141900000000001 10.8559400000000004  4.3879999999999999
  3.4141900000000001  3.1173899999999999  5.8587499999999997
  3.4141900000000001  9.6794899999999995  2.0701100000000001
  4.7798600000000002  7.4112400000000003  7.3571600000000004
  4.7798600000000002  0.8491400000000000  3.5685199999999999
  4.7798600000000002  8.8303600000000007  5.1794500000000001
  4.7798600000000002  2.2682600000000002  1.3908100000000001
  4.7798600000000002 10.0068099999999998  7.4973400000000003
  4.7798600000000002  3.4447100000000002  3.7086999999999999
  3.4141900000000001  5.5838099999999997 13.7749100000000002
  3.4141900000000001 12.2734900000000007  9.7940299999999993
  3.4141900000000001  4.2903099999999998  8.1672300000000000
  3.4141900000000001 10.8034900000000000 11.8848699999999994
  3.4141900000000001  3.1918600000000001 13.3645999999999994
  3.4141900000000001  9.6938300000000002  9.5982000000000003
  4.7001600000000003  7.5083299999999999 14.9200599999999994
  4.7806899999999999  0.8348500000000000 11.1866099999999999
  4.7716099999999999  8.6804900000000007 12.5772200000000005
  4.7811599999999999  2.2521900000000001  8.9675600000000006
  4.8328100000000003  9.9008900000000004 14.9446899999999996
  4.7726400000000000  3.3960599999999999 11.2421000000000006
  0.6828400000000000  4.5416299999999996  4.4311900000000000
  0.6828400000000000 11.1037300000000005  0.6425500000000000
  0.6828400000000000  6.2371400000000001  0.3686300000000000
  0.6828400000000000 12.7992399999999993  4.1572699999999996
  0.6828400000000000  2.3454299999999999  0.0799400000000000
  0.6828400000000000  8.9075299999999995  3.8685800000000001
  2.0485099999999998  8.5825700000000005  1.3476200000000000
  2.0485099999999998  2.0204700000000000  5.1362600000000000
  2.0485099999999998  6.8870600000000000  5.4101800000000004
  2.0485099999999998  0.3249600000000000  1.6215400000000000
  2.0485099999999998 10.7787699999999997  5.6992500000000001
  2.0485099999999998  4.2166699999999997  1.9106099999999999
  0.6828400000000000  8.7495100000000008  6.6782399999999997
  0.6828400000000000  2.1874099999999999  2.8896000000000002
  2.0485099999999998  4.3746900000000002  6.6782399999999997
  2.0485099999999998 10.9367900000000002  2.8896000000000002
  0.6828400000000000  4.5354200000000002 12.0886200000000006
  0.6828400000000000 11.1147200000000002  8.2226800000000004
  0.6828400000000000  6.2336999999999998  7.9431200000000004
  0.6828400000000000 12.7460100000000001 11.7626600000000003
  0.6828400000000000  2.3386900000000002  7.6562400000000004
  0.6828400000000000  8.7589500000000005 11.4121600000000001
  2.0485300000000000  8.5846900000000002  8.9142399999999995
  2.0532300000000001  2.0136400000000001 12.7673600000000000
  2.0363799999999999  6.9045399999999999 13.1974900000000002
  2.0487899999999999  0.3252200000000000  9.2236799999999999
  2.0603500000000001 10.5082900000000006 13.2782999999999998
  2.0495600000000000  4.2077799999999996  9.4979700000000005
  0.6828400000000000  8.6614000000000004 15.2895000000000003
  0.6828400000000000  2.1741199999999998 10.4880600000000008
  2.0385300000000002  4.2947300000000004 14.2835300000000007
  2.0474100000000002 10.9084500000000002 10.4650200000000009
  3.4141900000000001  4.5416299999999996  4.4311900000000000
  3.4141900000000001 11.1037300000000005  0.6425500000000000
  3.4141900000000001  6.2371400000000001  0.3686300000000000
  3.4141900000000001 12.7992399999999993  4.1572699999999996
  3.4141900000000001  2.3454299999999999  0.0799400000000000
  3.4141900000000001  8.9075299999999995  3.8685800000000001
  4.7798600000000002  8.5825700000000005  1.3476200000000000
  4.7798600000000002  2.0204700000000000  5.1362600000000000
  4.7798600000000002  6.8870600000000000  5.4101800000000004
  4.7798600000000002  0.3249600000000000  1.6215400000000000
  4.7798600000000002 10.7787699999999997  5.6992500000000001
  4.7798600000000002  4.2166699999999997  1.9106099999999999
  3.4141900000000001  8.7495100000000008  6.6782399999999997
  3.4141900000000001  2.1874099999999999  2.8896000000000002
  4.7798600000000002  4.3746900000000002  6.6782399999999997
  4.7798600000000002 10.9367900000000002  2.8896000000000002
  3.4141900000000001  4.5402500000000003 12.0980899999999991
  3.4141900000000001 11.1162100000000006  8.2214500000000008
  3.4141900000000001  6.2332900000000002  7.9419000000000004
  3.4141900000000001 12.7460199999999997 11.7570800000000002
  3.4141900000000001  2.3396300000000001  7.6572100000000001
  3.4141900000000001  8.7563800000000001 11.4015299999999993
  4.7798400000000001  8.5846900000000002  8.9142399999999995
  4.7751400000000004  2.0136400000000001 12.7673600000000000
  4.7919999999999998  6.9045399999999999 13.1974900000000002
  4.7795800000000002  0.3252200000000000  9.2236799999999999
  4.7680199999999999 10.5082900000000006 13.2782999999999998
  4.7788100000000000  4.2077799999999996  9.4979700000000005
  3.4141900000000001  8.8981200000000005 15.4537700000000005
  3.4141900000000001  2.1694499999999999 10.4899500000000003
  4.7898399999999999  4.2947300000000004 14.2835300000000007
  4.7809699999999999 10.9084500000000002 10.4650200000000009
  3.4141900000000001  6.3585599999999998 15.4741499999999998
