Hf  N  H 
 1.0000000000000000
     6.3902799999999997    0.0000000000000000    0.0000000000000000
     3.1951399999999999    5.5341448169999996    0.0000000000000000
     0.0000000000000000    0.0000000000000000   31.3059000000000012
 Hf  N   H  
  16  16   1
Cartesian
  1.5975699999999999  1.3835400000000000  1.9566200000000000
  3.1951200000000002  2.3058800000000002  4.5653400000000000
  3.2047300000000001  0.4667200000000000  7.2186899999999996
  1.5975800000000000  1.3597200000000000  9.7799399999999999
  3.1951399999999999  4.1506100000000004  1.9566200000000000
  4.7926900000000003  5.0729600000000001  4.5653400000000000
  4.7927099999999996  3.2171799999999999  7.2186899999999996
  3.2157700000000000  4.1625199999999998  9.7799399999999999
  4.7927099999999996  1.3835400000000000  1.9566200000000000
  6.3902599999999996  2.3058800000000002  4.5653400000000000
  6.3807000000000000  0.4667100000000000  7.2186899999999996
  4.7927099999999996  1.3835400000000000  9.7467000000000006
  6.3902799999999997  4.1506100000000004  1.9566200000000000
  7.9878299999999998  5.0729600000000001  4.5653400000000000
  7.9878499999999999  3.2282500000000001  7.2156500000000001
  6.3696500000000000  4.1625199999999998  9.7799399999999999
  3.1951200000000002  2.3058800000000002  0.6521000000000000
  3.1951600000000000  0.4611900000000000  3.2611400000000001
  1.5975699999999999  1.3790500000000001  5.8839399999999999
  3.1842100000000002  2.3122099999999999  8.4893199999999993
  4.7926900000000003  5.0729600000000001  0.6521000000000000
  4.7927299999999997  3.2282600000000001  3.2611400000000001
  3.1990200000000000  4.1528499999999999  5.8839399999999999
  4.7927099999999996  5.0729699999999998  8.4468999999999994
  6.3902599999999996  2.3058800000000002  0.6521000000000000
  6.3902999999999999  0.4611900000000000  3.2611400000000001
  4.7927099999999996  1.3835299999999999  5.8791200000000003
  6.4012200000000004  2.3122099999999999  8.4893199999999993
  7.9878299999999998  5.0729600000000001  0.6521000000000000
  7.9878700000000000  3.2282600000000001  3.2611400000000001
  6.3863899999999996  4.1528499999999999  5.8839399999999999
  7.9878499999999999  5.0603400000000001  8.4893199999999993
  4.7927099999999996  5.0729699999999998 10.9035200000000003
