Hf  N  H 
 1.0000000000000000
     6.3902799999999997    0.0000000000000000    0.0000000000000000
     0.0000000000000000    6.3902799999999997    0.0000000000000000
     0.0000000000000000    0.0000000000000000   27.1116999999999990
 Hf  N   H  
  16  16   1
Cartesian
  1.5975699999999999  1.5975699999999999  1.1297400000000000
  0.0000000000000000  0.0000000000000000  3.3889600000000000
  1.6250100000000001  1.6097999999999999  5.6412899999999997
  0.0132900000000000 -0.0132900000000000  7.7896299999999998
  1.5975699999999999  4.7927099999999996  1.1297400000000000
  0.0000000000000000  3.1951399999999999  3.3889600000000000
  1.6243799999999999  4.7659000000000002  5.6419400000000000
  0.0132000000000000  3.1822200000000000  7.8175800000000004
  4.7927099999999996  1.5975699999999999  1.1297400000000000
  3.1951399999999999  0.0000000000000000  3.3889600000000000
  4.7800099999999999  1.6102700000000001  5.6417099999999998
  3.2080600000000001 -0.0132000000000000  7.8175800000000004
  4.7927099999999996  4.7927099999999996  1.1297400000000000
  3.1951399999999999  3.1951399999999999  3.3889600000000000
  4.7804799999999998  4.7652700000000001  5.6412899999999997
  3.2102700000000000  3.1800099999999998  8.0248299999999997
  1.5975699999999999  1.5975699999999999  3.3889600000000000
  0.0000000000000000  0.0000000000000000  1.1297400000000000
  1.6009700000000000  1.5750900000000001  7.9330600000000002
  0.0075000000000000 -0.0075000000000000  5.6730499999999999
  1.5975699999999999  4.7927099999999996  3.3889600000000000
  0.0000000000000000  3.1951399999999999  1.1297400000000000
  1.6027899999999999  4.7874900000000000  7.9400700000000004
  0.0076100000000000  3.1870599999999998  5.6709699999999996
  4.7927099999999996  1.5975699999999999  3.3889600000000000
  3.1951399999999999  0.0000000000000000  1.1297400000000000
  4.8171999999999997  1.5730800000000000  7.9262100000000002
  3.2032200000000000 -0.0076100000000000  5.6709699999999996
  4.7927099999999996  4.7927099999999996  3.3889600000000000
  3.1951399999999999  3.1951399999999999  1.1297400000000000
  4.8151900000000003  4.7893100000000004  7.9330600000000002
  3.2029899999999998  3.1872900000000000  5.6639299999999997
  3.2640400000000001  3.1262400000000001  9.9229199999999995
