Cr  N  H 
 1.0000000000000000
     5.4626999999999999    0.0000000000000000    0.0000000000000000
     0.0000000000000000   13.1242000000000001    0.0000000000000000
     0.0000000000000000    0.0000000000000000   37.8864000000000019
 Cr  N   H  
  48  64   1
Cartesian
  0.6828400000000000  5.7129599999999998  6.1489599999999998
  0.6828400000000000 12.2750599999999999  2.3603200000000002
  0.6828400000000000  4.2938400000000003  0.7493900000000000
  0.6828400000000000 10.8559400000000004  4.5380300000000000
  0.6828400000000000  3.1173899999999999  6.0087799999999998
  0.6828400000000000  9.6794899999999995  2.2201399999999998
  2.0485099999999998  7.4112400000000003  7.5071899999999996
  2.0485099999999998  0.8491400000000000  3.7185500000000000
  2.0485099999999998  8.8303600000000007  5.3294800000000002
  2.0485099999999998  2.2682600000000002  1.5408400000000000
  2.0485099999999998 10.0068099999999998  0.0700900000000000
  2.0485099999999998  3.4447100000000002  3.8587300000000000
  0.6821000000000000  5.5840100000000001 13.6140200000000000
  0.6831900000000000 12.2452100000000002  9.9330800000000004
  0.6828200000000000  4.2848699999999997  8.2936200000000007
  0.6815000000000000 10.9033099999999994 12.1033700000000000
  0.6834100000000000  3.1995600000000000 13.4510299999999994
  0.6827700000000000  9.6505200000000002  9.8058599999999991
  2.0485099999999998  7.6465399999999999 15.0897799999999993
  2.0485099999999998  0.8457500000000000 11.2868300000000001
  2.0485099999999998  8.9748599999999996 13.0231700000000004
  2.0485099999999998  2.2194600000000002  9.0734399999999997
  2.0485099999999998  9.9797600000000006  7.6415499999999996
  2.0485099999999998  3.3652299999999999 11.3217400000000001
  3.4141900000000001  5.7129599999999998  6.1489599999999998
  3.4141900000000001 12.2750599999999999  2.3603200000000002
  3.4141900000000001  4.2938400000000003  0.7493900000000000
  3.4141900000000001 10.8559400000000004  4.5380300000000000
  3.4141900000000001  3.1173899999999999  6.0087799999999998
  3.4141900000000001  9.6794899999999995  2.2201399999999998
  4.7798600000000002  7.4112400000000003  7.5071899999999996
  4.7798600000000002  0.8491400000000000  3.7185500000000000
  4.7798600000000002  8.8303600000000007  5.3294800000000002
  4.7798600000000002  2.2682600000000002  1.5408400000000000
  4.7798600000000002 10.0068099999999998  0.0700900000000000
  4.7798600000000002  3.4447100000000002  3.8587300000000000
  3.4149300000000000  5.5840100000000001 13.6140200000000000
  3.4138299999999999 12.2452100000000002  9.9330800000000004
  3.4142100000000002  4.2848699999999997  8.2936200000000007
  3.4155199999999999 10.9033099999999994 12.1033700000000000
  3.4136199999999999  3.1995600000000000 13.4510299999999994
  3.4142500000000000  9.6505200000000002  9.8058599999999991
  4.7798600000000002  7.6586900000000000 15.0933399999999995
  4.7798600000000002  0.8463600000000000 11.2870299999999997
  4.7798600000000002  8.9640799999999992 13.0118799999999997
  4.7798600000000002  2.2192200000000000  9.0734600000000007
  4.7798600000000002  9.9797399999999996  7.6413300000000000
  4.7798600000000002  3.3652299999999999 11.3216999999999999
  0.6828400000000000  4.5416299999999996  4.5812200000000001
  0.6828400000000000 11.1037300000000005  0.7925800000000000
  0.6828400000000000  6.2371400000000001  0.5186600000000000
  0.6828400000000000 12.7992399999999993  4.3072999999999997
  0.6828400000000000  2.3454299999999999  0.2295900000000000
  0.6828400000000000  8.9075299999999995  4.0182300000000000
  2.0485099999999998  8.5825700000000005  1.4976499999999999
  2.0485099999999998  2.0204700000000000  5.2862900000000002
  2.0485099999999998  6.8870600000000000  5.5602099999999997
  2.0485099999999998  0.3249600000000000  1.7715700000000001
  2.0485099999999998 10.7787699999999997  5.8489000000000004
  2.0485099999999998  4.2166699999999997  2.0602600000000000
  0.6828400000000000  8.7495100000000008  6.8278900000000000
  0.6828400000000000  2.1874099999999999  3.0392500000000000
  2.0485099999999998  4.3746900000000002  6.8278900000000000
  2.0485099999999998 10.9367900000000002  3.0392500000000000
  0.6828800000000000  4.5173699999999997 12.0909800000000001
  0.6829200000000000 11.0695899999999998  8.3962500000000002
  0.6828300000000000  6.2256499999999999  8.0860900000000004
  0.6829800000000000 12.8104600000000008 11.8896899999999999
  0.6828300000000000  2.3202400000000001  7.7729900000000001
  0.6836900000000000  8.9211100000000005 11.7341099999999994
  2.0485099999999998  8.5530200000000001  9.0978399999999997
  2.0485099999999998  2.0248800000000000 12.8733000000000004
  2.0485099999999998  6.8998900000000001 13.3918300000000006
  2.0485099999999998  0.3029700000000000  9.3382600000000000
  2.0485099999999998 10.7688900000000007 13.3788099999999996
  2.0485099999999998  4.1831100000000001  9.6029300000000006
  0.6850700000000000  8.7110900000000004 14.6763600000000007
  0.6828500000000000  2.1526500000000000 10.5844299999999993
  2.0485099999999998  4.3642200000000004 14.3372700000000002
  2.0485099999999998 10.9109099999999994 10.6167700000000007
  3.4141900000000001  4.5416299999999996  4.5812200000000001
  3.4141900000000001 11.1037300000000005  0.7925800000000000
  3.4141900000000001  6.2371400000000001  0.5186600000000000
  3.4141900000000001 12.7992399999999993  4.3072999999999997
  3.4141900000000001  2.3454299999999999  0.2295900000000000
  3.4141900000000001  8.9075299999999995  4.0182300000000000
  4.7798600000000002  8.5825700000000005  1.4976499999999999
  4.7798600000000002  2.0204700000000000  5.2862900000000002
  4.7798600000000002  6.8870600000000000  5.5602099999999997
  4.7798600000000002  0.3249600000000000  1.7715700000000001
  4.7798600000000002 10.7787699999999997  5.8489000000000004
  4.7798600000000002  4.2166699999999997  2.0602600000000000
  3.4141900000000001  8.7495100000000008  6.8278900000000000
  3.4141900000000001  2.1874099999999999  3.0392500000000000
  4.7798600000000002  4.3746900000000002  6.8278900000000000
  4.7798600000000002 10.9367900000000002  3.0392500000000000
  3.4141499999999998  4.5173699999999997 12.0909800000000001
  3.4140999999999999 11.0695899999999998  8.3962500000000002
  3.4141900000000001  6.2256499999999999  8.0860900000000004
  3.4140400000000000 12.8104600000000008 11.8896899999999999
  3.4142000000000001  2.3202400000000001  7.7729900000000001
  3.4133300000000002  8.9211100000000005 11.7341099999999994
  4.7798600000000002  8.5532599999999999  9.0981100000000001
  4.7798600000000002  2.0254699999999999 12.8735900000000001
  4.7798600000000002  6.9020099999999998 13.3949099999999994
  4.7798600000000002  0.3027700000000000  9.3383900000000004
  4.7798600000000002 10.7614599999999996 13.3734599999999997
  4.7798600000000002  4.1830600000000002  9.6028699999999994
  3.4119600000000001  8.7110900000000004 14.6763600000000007
  3.4141699999999999  2.1526500000000000 10.5844299999999993
  4.7798600000000002  4.3639299999999999 14.3370800000000003
  4.7798600000000002 10.9114199999999997 10.6161200000000004
  2.0485099999999998 11.6385699999999996 15.8519699999999997
