Cr  N  H 
 1.0000000000000000
     5.4626999999999999    0.0000000000000000    0.0000000000000000
     0.0000000000000000   13.1242000000000001    0.0000000000000000
     0.0000000000000000    0.0000000000000000   37.8864000000000019
 Cr  N   H  
  48  64   1
Cartesian
  0.6828400000000000  5.7129599999999998  5.9989299999999997
  0.6828400000000000 12.2750599999999999  2.2102900000000001
  0.6828400000000000  4.2938400000000003  0.5993600000000000
  0.6828400000000000 10.8559400000000004  4.3879999999999999
  0.6828400000000000  3.1173899999999999  5.8587499999999997
  0.6828400000000000  9.6794899999999995  2.0701100000000001
  2.0485099999999998  7.4112400000000003  7.3571600000000004
  2.0485099999999998  0.8491400000000000  3.5685199999999999
  2.0485099999999998  8.8303600000000007  5.1794500000000001
  2.0485099999999998  2.2682600000000002  1.3908100000000001
  2.0485099999999998 10.0068099999999998  7.4973400000000003
  2.0485099999999998  3.4447100000000002  3.7086999999999999
  0.6828400000000000  5.6130199999999997 13.7871000000000006
  0.6828400000000000 12.2829300000000003  9.8041300000000007
  0.6828400000000000  4.2944399999999998  8.1668699999999994
  0.6828400000000000 10.8222000000000005 11.9023400000000006
  0.6828400000000000  3.2252200000000002 13.3696999999999999
  0.6828400000000000  9.6976600000000008  9.6092200000000005
  1.9818600000000000  7.5428199999999999 14.9421999999999997
  2.0474899999999998  0.8579700000000000 11.1951099999999997
  2.0413000000000001  8.7123899999999992 12.6041899999999991
  2.0494400000000002  2.2634400000000001  8.9736799999999999
  2.1036199999999998  9.9384700000000006 14.9698300000000000
  2.0424500000000001  3.4232900000000002 11.2446400000000004
  3.4141900000000001  5.7129599999999998  5.9989299999999997
  3.4141900000000001 12.2750599999999999  2.2102900000000001
  3.4141900000000001  4.2938400000000003  0.5993600000000000
  3.4141900000000001 10.8559400000000004  4.3879999999999999
  3.4141900000000001  3.1173899999999999  5.8587499999999997
  3.4141900000000001  9.6794899999999995  2.0701100000000001
  4.7798600000000002  7.4112400000000003  7.3571600000000004
  4.7798600000000002  0.8491400000000000  3.5685199999999999
  4.7798600000000002  8.8303600000000007  5.1794500000000001
  4.7798600000000002  2.2682600000000002  1.3908100000000001
  4.7798600000000002 10.0068099999999998  7.4973400000000003
  4.7798600000000002  3.4447100000000002  3.7086999999999999
  3.4141900000000001  5.5615399999999999 13.7948599999999999
  3.4141900000000001 12.2784600000000008  9.8097899999999996
  3.4141900000000001  4.2942099999999996  8.1677999999999997
  3.4141900000000001 10.8198500000000006 11.9056099999999994
  3.4141900000000001  3.2037300000000002 13.3463600000000007
  3.4141900000000001  9.7014499999999995  9.6114300000000004
  4.8465100000000003  7.5428199999999999 14.9421999999999997
  4.7808799999999998  0.8579700000000000 11.1951099999999997
  4.7870799999999996  8.7123899999999992 12.6041899999999991
  4.7789299999999999  2.2634400000000001  8.9736799999999999
  4.7247500000000002  9.9384700000000006 14.9698300000000000
  4.7859299999999996  3.4232900000000002 11.2446400000000004
  0.6828400000000000  4.5416299999999996  4.4311900000000000
  0.6828400000000000 11.1037300000000005  0.6425500000000000
  0.6828400000000000  6.2371400000000001  0.3686300000000000
  0.6828400000000000 12.7992399999999993  4.1572699999999996
  0.6828400000000000  2.3454299999999999  0.0799400000000000
  0.6828400000000000  8.9075299999999995  3.8685800000000001
  2.0485099999999998  8.5825700000000005  1.3476200000000000
  2.0485099999999998  2.0204700000000000  5.1362600000000000
  2.0485099999999998  6.8870600000000000  5.4101800000000004
  2.0485099999999998  0.3249600000000000  1.6215400000000000
  2.0485099999999998 10.7787699999999997  5.6992500000000001
  2.0485099999999998  4.2166699999999997  1.9106099999999999
  0.6828400000000000  8.7495100000000008  6.6782399999999997
  0.6828400000000000  2.1874099999999999  2.8896000000000002
  2.0485099999999998  4.3746900000000002  6.6782399999999997
  2.0485099999999998 10.9367900000000002  2.8896000000000002
  0.6828400000000000  4.5708399999999996 12.1029699999999991
  0.6828400000000000 11.1153800000000000  8.2308299999999992
  0.6828400000000000  6.2366799999999998  7.9421400000000002
  0.6828400000000000 12.7662300000000002 11.7656600000000005
  0.6828400000000000  2.3435100000000002  7.6613100000000003
  0.6828400000000000  8.7777700000000003 11.4271200000000004
  2.0492800000000000  8.5897900000000007  8.9209300000000002
  2.0432899999999998  2.0456300000000001 12.7696199999999997
  2.0622799999999999  6.9346199999999998 13.2205899999999996
  2.0483300000000000  0.3355100000000000  9.2343799999999998
  2.0402200000000001 10.5394900000000007 13.3017699999999994
  2.0474500000000000  4.2226800000000004  9.4968199999999996
  0.6828400000000000  8.9206900000000005 15.4353700000000007
  0.6828400000000000  2.1914099999999999 10.4962199999999992
  2.0583900000000002  4.3215899999999996 14.2945899999999995
  2.0490699999999999 10.9189600000000002 10.4794699999999992
  3.4141900000000001  4.5416299999999996  4.4311900000000000
  3.4141900000000001 11.1037300000000005  0.6425500000000000
  3.4141900000000001  6.2371400000000001  0.3686300000000000
  3.4141900000000001 12.7992399999999993  4.1572699999999996
  3.4141900000000001  2.3454299999999999  0.0799400000000000
  3.4141900000000001  8.9075299999999995  3.8685800000000001
  4.7798600000000002  8.5825700000000005  1.3476200000000000
  4.7798600000000002  2.0204700000000000  5.1362600000000000
  4.7798600000000002  6.8870600000000000  5.4101800000000004
  4.7798600000000002  0.3249600000000000  1.6215400000000000
  4.7798600000000002 10.7787699999999997  5.6992500000000001
  4.7798600000000002  4.2166699999999997  1.9106099999999999
  3.4141900000000001  8.7495100000000008  6.6782399999999997
  3.4141900000000001  2.1874099999999999  2.8896000000000002
  4.7798600000000002  4.3746900000000002  6.6782399999999997
  4.7798600000000002 10.9367900000000002  2.8896000000000002
  3.4141900000000001  4.5646699999999996 12.0960300000000007
  3.4141900000000001 11.1147799999999997  8.2323199999999996
  3.4141900000000001  6.2365000000000004  7.9421799999999996
  3.4141900000000001 12.7698900000000002 11.7707599999999992
  3.4141900000000001  2.3427699999999998  7.6609299999999996
  3.4141900000000001  8.7849100000000000 11.4398300000000006
  4.7790999999999997  8.5897900000000007  8.9209300000000002
  4.7850900000000003  2.0456300000000001 12.7696199999999997
  4.7660900000000002  6.9346199999999998 13.2205899999999996
  4.7800500000000001  0.3355100000000000  9.2343799999999998
  4.7881600000000004 10.5394900000000007 13.3017699999999994
  4.7809200000000001  4.2226800000000004  9.4968199999999996
  3.4141900000000001  8.7034400000000005 15.3506999999999998
  3.4141900000000001  2.1942300000000001 10.4959500000000006
  4.7699900000000000  4.3215899999999996 14.2945899999999995
  4.7793099999999997 10.9189600000000002 10.4794699999999992
  0.6828400000000000  6.4040100000000004 15.4804200000000005
