 W  N  H 
 1.0000000000000000
     5.8240800000000004    0.0000000000000000    0.0000000000000000
     0.0000000000000000    7.7826000000000004    0.0000000000000000
     0.0000000000000000    0.0000000000000000   30.2627999999999986
 W   N   H  
  16  32   1
Cartesian
  2.6693797067999898  1.9456500000000001  1.2610508760001029
  1.2133597067999895  5.8369499999999999  0.4203502920001059
  1.2133597067999895  1.9456500000000001  3.7828499999999998
  2.6693797067999898  5.8369499999999999  2.9421494160000030
  2.6693797067999898  1.9456500000000001  6.3035267152338488
  1.2172611625318008  5.8369499999999999  5.4622635541933011
  1.1939024971698053  1.9456500000000001  8.7604506549640835
  2.6693797067999898  5.8369499999999999  8.2389848335966001
  5.5814197067999896  1.9456500000000001  1.2610508760001029
  4.1253997067999899  5.8369499999999999  0.4203502920001059
  4.1253997067999899  1.9456500000000001  3.7828499999999998
  5.5814197067999896  5.8369499999999999  2.9421494160000030
  5.5814197067999896  1.9456500000000001  6.2898921789979356
  4.1214982510682203  5.8369499999999999  5.4622635541933011
  4.1448569164301707  1.9456500000000001  8.7604506549640835
  5.5814197067999896  5.8369499999999999  8.0848789267796324
  1.2133597067999895  3.1919555639999877  2.1014488320000058
  1.2133597067999895  4.5906444360000132  2.1014488320000058
  1.2133597067999895  7.0832555639999875  2.1014488320000058
  1.2133597067999895  0.6993444360000125  2.1014488320000058
  2.6693797067999898  3.1919555639999877  4.6235505839999966
  2.6693797067999898  4.5906444360000132  4.6235505839999966
  2.6693797067999898  7.0832555639999875  4.6235505839999966
  2.6693797067999898  0.6993444360000125  4.6235505839999966
  1.2131088874468769  3.2315801850311878  7.1333526270642684
  1.2180909875045527  4.6155656605868662  7.1289423266849035
  1.2180909875045527  7.0583343394131344  7.1289423266849035
  1.2131088874468769  0.6597198149688139  7.1333526270642684
  2.6693797067999898  3.1506594562136216  9.5941930179488661
  2.6693797067999898  4.4306649344539926  9.5146789190604757
  2.6693797067999898  7.2432350655460080  9.5146789190604757
  2.6693797067999898  0.7406405437863779  9.5941930179488661
  4.1253997067999899  3.1919555639999877  2.1014488320000058
  4.1253997067999899  4.5906444360000132  2.1014488320000058
  4.1253997067999899  7.0832555639999875  2.1014488320000058
  4.1253997067999899  0.6993444360000125  2.1014488320000058
  5.5814197067999896  3.1919555639999877  4.6235505839999966
  5.5814197067999896  4.5906444360000132  4.6235505839999966
  5.5814197067999896  7.0832555639999875  4.6235505839999966
  5.5814197067999896  0.6993444360000125  4.6235505839999966
  4.1256505261531000  3.2315801850311878  7.1333526270642684
  4.1206684260953761  4.6155656605868662  7.1289423266849035
  4.1206684260953761  7.0583343394131344  7.1289423266849035
  4.1256505261531000  0.6597198149688692  7.1333526270642684
  5.5814197067999896  3.2348289126129397  9.5091964332385093
  5.5814197067999896  4.4638904458699047  9.4168526361047675
  5.5814197067999896  7.2100095541300959  9.4168526361047675
  5.5814197067999896  0.6564710873870017  9.5091964332385093
  2.6693797067999898  1.9456500000000001 10.4030471097776296
