Mo  N Mo  N Mo  N Mo  N Mo  N Mo  N Mo  N Mo  N  H 
 1.0000000000000000
     5.2865300000000000    0.0000000000000000    0.0000000000000000
     9.0036383979191221    5.5429318382167017    0.0000000000000000
     0.0000000000000000    0.0000000000000000   29.5315000000000012
 Mo  N   Mo  N   Mo  N   Mo  N   Mo  N   Mo  N   Mo  N   Mo  N   H  
   2   1   2   1   2   1   2   1   2   1   2   1   2   1   2   1   1
Cartesian
  1.0322187380060641  0.4739761014859102  1.5645788700000001
  3.4695705538469950  1.1640711153438896  0.2988587800000000
  4.5017969950692702  1.4563499111730560  2.1622964300000000
  5.5340763015915453  1.7486287070022226  4.0257340800000003
  7.9713752521324768  2.4387237208602022  2.7597186750000002
  9.0036545586547518  2.7310025166893692  4.6231563250000001
  5.6202753680244593  0.2930944531540511  6.4036061241456563
  2.6932478010296057  0.9332138152106674  5.2958179692420382
  3.7638936918683403  1.2305134961140347  7.1157974451306023
  4.9807528272744799  1.3693260960398141  8.7648884929480761
  7.2097240034944878  2.2623321360631592  7.6967278126681977
  8.5871911785552513  2.4236749433136966  9.5375758882629285
  5.5340379369656247  3.2454420205942611  1.5645788700000001
  7.9713897528065560  3.9355370344522402  0.2988587800000000
  9.0036161940288313  4.2278158302814068  2.1622964300000000
 10.0358955005511064  4.5200946261105734  4.0257340800000003
 12.4731944510920378  5.2101896399685526  2.7597186750000002
 13.5054737576143129  5.5024684357977200  4.6231563250000001
 10.0670853790533279  3.0316923505643074  6.4462368654289817
  7.1673281552320107  3.7078538894859090  5.2327264053925884
  8.2165858177421374  4.0607533795217154  7.0186359985759017
  9.1300824193634522  4.1776641613391980  8.7682610272352726
 11.7173906781239907  4.9899494862737450  7.9491227577109083
 12.9646652181630770  5.3092210232066055  9.5047870533595482
  2.8511140888492337  2.0784799205016511 10.3881865992655271
