 W  N  H 
 1.0000000000000000
     5.8240800000000004    0.0000000000000000    0.0000000000000000
     0.0000000000000000    7.7826000000000004    0.0000000000000000
     0.0000000000000000    0.0000000000000000   30.2627999999999986
 W   N   H  
  16  32   1
Cartesian
  2.6693799999999999  1.9456500000000001  1.2610500000000000
  1.2133600000000000  5.8369499999999999  0.4203500000000000
  1.2133600000000000  1.9456500000000001  3.7828499999999998
  2.6693799999999999  5.8369499999999999  2.9421499999999998
  2.6685900000000000  1.9444800000000000  6.3127800000000001
  1.2133600000000000  5.8364799999999999  5.4562200000000001
  1.2133600000000000  1.9449500000000000  8.9227299999999996
  2.6655899999999999  5.8352500000000003  8.0512300000000003
  5.5814199999999996  1.9456500000000001  1.2610500000000000
  4.1254000000000000  5.8369499999999999  0.4203500000000000
  4.1254000000000000  1.9456500000000001  3.7828499999999998
  5.5814199999999996  5.8369499999999999  2.9421499999999998
  5.5822099999999999  1.9444800000000000  6.3127800000000001
  4.1254000000000000  5.8362699999999998  5.4482400000000002
  4.1254000000000000  1.9443600000000001  8.8032400000000006
  5.5852100000000000  5.8352500000000003  8.0512300000000003
  1.2133600000000000  3.1919599999999999  2.1014499999999998
  1.2133600000000000  4.5906399999999996  2.1014499999999998
  1.2133600000000000  7.0832600000000001  2.1014499999999998
  1.2133600000000000  0.6993400000000000  2.1014499999999998
  2.6693799999999999  3.1919599999999999  4.6235499999999998
  2.6693799999999999  4.5906399999999996  4.6235499999999998
  2.6693799999999999  7.0832600000000001  4.6235499999999998
  2.6693799999999999  0.6993400000000000  4.6235499999999998
  1.2133600000000000  3.2022900000000001  7.1674899999999999
  1.2133600000000000  4.5869999999999997  7.1130699999999996
  1.2133600000000000  7.0839600000000003  7.1129100000000003
  1.2133600000000000  0.6860900000000000  7.1673299999999998
  2.7270900000000000  3.2583899999999999  9.5352099999999993
  2.6913600000000000  4.4692699999999999  9.3974200000000003
  2.6906200000000000  7.2023799999999998  9.3952899999999993
  2.7249300000000001  0.6307100000000000  9.5331899999999994
  4.1254000000000000  3.1919599999999999  2.1014499999999998
  4.1254000000000000  4.5906399999999996  2.1014499999999998
  4.1254000000000000  7.0832600000000001  2.1014499999999998
  4.1254000000000000  0.6993400000000000  2.1014499999999998
  5.5814199999999996  3.1919599999999999  4.6235499999999998
  5.5814199999999996  4.5906399999999996  4.6235499999999998
  5.5814199999999996  7.0832600000000001  4.6235499999999998
  5.5814199999999996  0.6993400000000000  4.6235499999999998
  4.1254000000000000  3.2127900000000000  7.1321800000000000
  4.1254000000000000  4.6033099999999996  7.1045499999999997
  4.1254000000000000  7.0672800000000002  7.1042600000000000
  4.1254000000000000  0.6751700000000000  7.1308100000000003
  5.5237100000000003  3.2583899999999999  9.5352099999999993
  5.5594400000000004  4.4692699999999999  9.3974200000000003
  5.5601799999999999  7.2023799999999998  9.3952899999999993
  5.5258700000000003  0.6307100000000000  9.5331899999999994
  1.2133600000000000  1.9467000000000001 10.6544899999999991
