Nb  N  H 
 1.0000000000000000
     5.3445200000000002    0.0000000000000000    0.0000000000000000
     0.0000000000000000    9.7873800000000006    0.0000000000000000
     0.0000000000000000    0.0000000000000000   27.5406000000000013
 Nb  N   H  
  16  20   1
Cartesian
  0.4423700000000000  4.0122400000000003  3.7135699999999998
  1.3059900000000000  8.9059299999999997  1.7466200000000001
  3.2419300000000000  2.9958200000000001  2.5965300000000000
  4.1056100000000004  7.8895099999999996  0.6293000000000000
  4.8561899999999998  6.7915599999999996  3.3051499999999998
  0.3752900000000000  1.8978699999999999  1.3379200000000000
  2.3112900000000001  5.7751400000000004  2.1878299999999999
  3.1749100000000001  0.8814500000000000  0.2206000000000000
  3.8593899999999999  4.0315799999999999  7.3878899999999996
  4.9652500000000002  8.9471500000000006  5.9348700000000001
  1.4563400000000000  2.9098199999999999  6.3528200000000004
  2.3978100000000002  7.9850899999999996  4.5138900000000000
  3.1606999999999998  6.9681699999999998  7.1171699999999998
  3.9830899999999998  1.8634999999999999  5.3504500000000004
  0.5515800000000000  5.7973400000000002  6.0620399999999997
  1.4282400000000000  0.9067000000000000  4.0433100000000000
  4.0490599999999999  4.8936900000000003  2.9506999999999999
  4.9126799999999999  0.0000000000000000  0.9834700000000000
  3.1270300000000000  5.9306599999999996  0.1996700000000000
  2.2633999999999999  1.0369699999999999  2.1668900000000000
  4.9985700000000000  1.9501400000000000  3.3676599999999999
  0.5177200000000000  6.8438299999999996  1.4004399999999999
  3.0995499999999998  7.8372400000000004  2.5340099999999999
  3.9631799999999999  2.9435500000000001  0.5667900000000000
  1.3538699999999999  3.8567200000000001  1.7675600000000000
  0.4902000000000000  8.7504100000000005  3.7347800000000002
  2.1645300000000001  4.9320399999999998  7.0186299999999999
  3.2179400000000000  0.0144700000000000  4.9535099999999996
  1.3849800000000001  5.9344000000000001  4.1173400000000004
  0.5199900000000000  1.0547800000000001  6.0883799999999999
  3.1895899999999999  2.1629200000000002  7.2509300000000003
  4.1268399999999996  6.9041499999999996  5.3536200000000003
  1.4074899999999999  7.7478100000000003  6.3911199999999999
  2.2108900000000000  2.9606200000000000  4.5155500000000002
  4.8423800000000004  3.9205600000000000  5.6973900000000004
  4.1387999999999998  8.5245599999999992  7.6283899999999996
  4.7522799999999998  5.7468599999999999  7.9971699999999997
