Nb  N Nb  N  H 
 1.0000000000000000
     5.3445200000000002    0.0000000000000000    0.0000000000000000
     0.0000000000000000    9.7873800000000006    0.0000000000000000
     0.0000000000000000    0.0000000000000000   27.5406000000000013
 Nb  N   Nb  N   H  
   8  10   8  10   1
Cartesian
  0.4423659204000000  4.0122385572000008  3.7135745039999999
  1.3059869072000001  8.9059285572000011  1.7466248520000003
  3.2419323867999998  2.9958191442000000  2.5965277680000001
  4.1056068188000001  7.8895091441999998  0.6293027100000000
  4.8561912076000002  6.7915608558000011  3.3051474060000001
  0.3752921944000001  1.8978708558000001  1.3379223480000000
  2.3112911192000003  5.7751414428000007  2.1878252640000002
  3.1749121059999998  0.8814514428000001  0.2206002060000000
  4.0490617972000003  4.8936900000000003  2.9506998840000001
  4.9126827840000002  0.0000000000000000  0.9834748260000000
  3.1270252068000000  5.9306629110000006  0.1996693500000000
  2.2634042200000000  1.0369729110000001  2.1668944080000001
  4.9985692204000003  1.9501354650000002  3.3676645680000004
  0.5177236524000000  6.8438254650000010  1.4004395100000000
  3.0995543739999998  7.8372445350000000  2.5340106059999998
  3.9631753608000002  2.9435545350000005  0.5667855480000000
  1.3538738064000000  3.8567170890000004  1.7675557080000002
  0.4901993744000000  8.7504070890000012  3.7347807660000005
  3.8798668005576786  3.9863797033729393  7.4458371464651947
  4.9375452041471686  8.9484306708388104  5.9148797365866850
  1.4213640358239579  2.8613303279820261  6.3618728611653603
  2.4085150112208100  7.9873523703576641  4.5021352808267912
  3.1560506760143996  6.9677822229793183  7.1043508151563515
  3.9837013825433369  1.8903183968950528  5.3236096425761028
  0.6189470821356367  5.8010620655265202  6.0444402342752213
  1.4239298109655729  0.9081090900557062  4.0368935145401386
  2.1809977015872799  4.9246017635066757  7.0569509058751985
  3.2100276628400128  0.0231765057007059  4.9490678581805057
  1.3770390336857290  5.9311830735725994  4.1182061307280140
  0.5049027939091527  1.0464052802559809  6.0898654546519202
  3.1405009405392494  2.1798173248957604  7.2419533118132371
  4.1248325096439205  6.8831005619605738  5.3598735055109294
  1.4080004795517664  7.7202842416586304  6.3712274534421391
  2.1997355005974022  2.9620375721159897  4.5263098587316355
  4.8655881942438191  3.9210956164288500  5.7380287343150318
  4.1798054487928278  8.4896366263694336  7.6340121860167658
  4.9880849629599151  4.4279242202810094  8.8375868658776167
