Nb  N Nb  N  H 
 1.0000000000000000
     5.3445200000000002    0.0000000000000000    0.0000000000000000
     0.0000000000000000    9.7873800000000006    0.0000000000000000
     0.0000000000000000    0.0000000000000000   27.5406000000000013
 Nb  N   Nb  N   H  
   8  10   8  10   1
Cartesian
  0.4423659204000000  4.0122385572000008  3.7135745039999999
  1.3059869072000001  8.9059285572000011  1.7466248520000003
  3.2419323867999998  2.9958191442000000  2.5965277680000001
  4.1056068188000001  7.8895091441999998  0.6293027100000000
  4.8561912076000002  6.7915608558000011  3.3051474060000001
  0.3752921944000001  1.8978708558000001  1.3379223480000000
  2.3112911192000003  5.7751414428000007  2.1878252640000002
  3.1749121059999998  0.8814514428000001  0.2206002060000000
  4.0490617972000003  4.8936900000000003  2.9506998840000001
  4.9126827840000002  0.0000000000000000  0.9834748260000000
  3.1270252068000000  5.9306629110000006  0.1996693500000000
  2.2634042200000000  1.0369729110000001  2.1668944080000001
  4.9985692204000003  1.9501354650000002  3.3676645680000004
  0.5177236524000000  6.8438254650000010  1.4004395100000000
  3.0995543739999998  7.8372445350000000  2.5340106059999998
  3.9631753608000002  2.9435545350000005  0.5667855480000000
  1.3538738064000000  3.8567170890000004  1.7675557080000002
  0.4901993744000000  8.7504070890000012  3.7347807660000005
  3.8569916410279239  4.0155388450748486  7.3861709528868964
  4.9604069246656586  8.9363653370808045  5.9383493589082876
  1.4552339830673733  2.8990964494265081  6.3516808416248658
  2.3945194329196009  7.9726659589519269  4.5158615966348794
  3.1568047582994119  6.9491803515884287  7.1162659605394225
  3.9774084707348383  1.8536859061305198  5.3432687191604380
  0.5503933120691054  5.7851154699712932  6.0623970022936646
  1.4256426527112864  0.9013848453595047  4.0426920323575706
  2.1605938968591718  4.9184659222205056  7.0220119076985217
  3.2136111695873382  0.0051337842126773  4.9509264306847571
  1.3845107370655341  5.9305847641147880  4.1173144512616080
  0.5106880020434863  1.0470940134338531  6.0881906398945222
  3.1830352212187272  2.1497540131456638  7.2476553410518871
  4.1252120988281726  6.8946876893537379  5.3528172903090416
  1.4035762571533081  7.7343917042346302  6.3920391895913378
  2.2077042883034075  2.9559529607366004  4.5128726784813198
  4.8405675237635419  3.9059337902936155  5.6950832551076918
  4.1323966018091705  8.5075805157836424  7.6270774901951315
  4.7595609252539797  5.7231332209766537  7.9964026815616718
