Nb  N Nb  N  H 
 1.0000000000000000
     5.3445200000000002    0.0000000000000000    0.0000000000000000
     0.0000000000000000    9.7873800000000006    0.0000000000000000
     0.0000000000000000    0.0000000000000000   27.5406000000000013
 Nb  N   Nb  N   H  
   8  10   8  10   1
Cartesian
  0.4423659204000000  4.0122385572000008  3.7135745039999999
  1.3059869072000001  8.9059285572000011  1.7466248520000003
  3.2419323867999998  2.9958191442000000  2.5965277680000001
  4.1056068188000001  7.8895091441999998  0.6293027100000000
  4.8561912076000002  6.7915608558000011  3.3051474060000001
  0.3752921944000001  1.8978708558000001  1.3379223480000000
  2.3112911192000003  5.7751414428000007  2.1878252640000002
  3.1749121059999998  0.8814514428000001  0.2206002060000000
  4.0490617972000003  4.8936900000000003  2.9506998840000001
  4.9126827840000002  0.0000000000000000  0.9834748260000000
  3.1270252068000000  5.9306629110000006  0.1996693500000000
  2.2634042200000000  1.0369729110000001  2.1668944080000001
  4.9985692204000003  1.9501354650000002  3.3676645680000004
  0.5177236524000000  6.8438254650000010  1.4004395100000000
  3.0995543739999998  7.8372445350000000  2.5340106059999998
  3.9631753608000002  2.9435545350000005  0.5667855480000000
  1.3538738064000000  3.8567170890000004  1.7675557080000002
  0.4901993744000000  8.7504070890000012  3.7347807660000005
  3.8523035809897199  4.0103714716931531  7.3805792332064550
  4.9580016951808643  8.9295809478186374  5.9344150084560612
  1.4507353691717320  2.8897217003534097  6.3494448458455972
  2.3911931341535615  7.9636671118305342  4.5146498239532802
  3.1516472000023881  6.9484329125013664  7.1145688319254567
  3.9767403674089428  1.8439022850054465  5.3421655348384816
  0.5439896124143220  5.7772700180233398  6.0630697789354020
  1.4286710188714966  0.8953736489195318  4.0408386996288526
  2.1556344307977384  4.9120268787881658  7.0134536809292820
  3.2116083079902191 -0.0043515729954436  4.9500602594838847
  1.3830136488400289  5.9273747650055295  4.1182206111323429
  0.5124212631765853  1.0347557789938795  6.0855260780339924
  3.1848565344031519  2.1414803633709063  7.2448343860127009
  4.1235792130087168  6.8871259871829782  5.3526289946129415
  1.3972220975531284  7.7273368364127526  6.3953393423583691
  2.2089049802080765  2.9504738169848430  4.5136358144531004
  4.8353739524399044  3.8978954353828499  5.6918117620848241
  4.1298882222687414  8.5031396044272469  7.6252765549933068
  4.7521243683352266  5.7144083259865353  7.9931608275301640
