Nb  N Nb  N  H 
 1.0000000000000000
     5.3445200000000002    0.0000000000000000    0.0000000000000000
     0.0000000000000000    9.7873800000000006    0.0000000000000000
     0.0000000000000000    0.0000000000000000   27.5406000000000013
 Nb  N   Nb  N   H  
   8  10   8  10   1
Cartesian
  0.4423659204000000  4.0122385572000008  3.7135745039999999
  1.3059869072000001  8.9059285572000011  1.7466248520000003
  3.2419323867999998  2.9958191442000000  2.5965277680000001
  4.1056068188000001  7.8895091441999998  0.6293027100000000
  4.8561912076000002  6.7915608558000011  3.3051474060000001
  0.3752921944000001  1.8978708558000001  1.3379223480000000
  2.3112911192000003  5.7751414428000007  2.1878252640000002
  3.1749121059999998  0.8814514428000001  0.2206002060000000
  4.0490617972000003  4.8936900000000003  2.9506998840000001
  4.9126827840000002  0.0000000000000000  0.9834748260000000
  3.1270252068000000  5.9306629110000006  0.1996693500000000
  2.2634042200000000  1.0369729110000001  2.1668944080000001
  4.9985692204000003  1.9501354650000002  3.3676645680000004
  0.5177236524000000  6.8438254650000010  1.4004395100000000
  3.0995543739999998  7.8372445350000000  2.5340106059999998
  3.9631753608000002  2.9435545350000005  0.5667855480000000
  1.3538738064000000  3.8567170890000004  1.7675557080000002
  0.4901993744000000  8.7504070890000012  3.7347807660000005
  3.8529483655187526  4.0118736393315286  7.3817327327264177
  4.9615723327517145  8.9324242637265723  5.9363941000071421
  1.4537964197481503  2.8943834429892155  6.3493385339855655
  2.3943854774785138  7.9696675305949567  4.5130150364200352
  3.1528060579807371  6.9480444267195169  7.1142915382885610
  3.9792486932046578  1.8484742565462733  5.3409893190569031
  0.5438942737640263  5.7835596669218345  6.0623478935169812
  1.4293240294510576  0.8982016475073233  4.0430152690757515
  2.1555481584268592  4.9143021984197590  7.0162441468792398
  3.2158775041664751  0.0003233549554344  4.9462996416324732
  1.3830864465175181  5.9291176267785071  4.1170927141730971
  0.5147984247305928  1.0390475689332412  6.0884931595380456
  3.1837149828492559  2.1449967561686560  7.2457705972824167
  4.1232580594494195  6.8905434051153236  5.3515557692237978
  1.4007612466638015  7.7344849204849622  6.3912034074614832
  2.2106127618568316  2.9559946303830662  4.5142561527840162
  4.8391509676634916  3.9012993478100730  5.6955117368622616
  4.1326461439450712  8.5040176986885765  7.6252236876346799
  4.7518320751794301  5.7198291667635655  7.9890985280946598
