Nb  N  H 
 1.0000000000000000
     5.3445200000000002    0.0000000000000000    0.0000000000000000
     0.0000000000000000    9.7873800000000006    0.0000000000000000
     0.0000000000000000    0.0000000000000000   27.5406000000000013
 Nb  N   H  
  16  20   1
Cartesian
  0.4423700000000000  4.0122400000000003  3.7135699999999998
  1.3059900000000000  8.9059299999999997  1.7466200000000001
  3.2419300000000000  2.9958200000000001  2.5965300000000000
  4.1056100000000004  7.8895099999999996  0.6293000000000000
  4.8561899999999998  6.7915599999999996  3.3051499999999998
  0.3752900000000000  1.8978699999999999  1.3379200000000000
  2.3112900000000001  5.7751400000000004  2.1878299999999999
  3.1749100000000001  0.8814500000000000  0.2206000000000000
  3.8599500000000000  4.0260100000000003  7.3846900000000000
  4.9746400000000000  8.9416300000000000  5.9344700000000001
  1.4581200000000001  2.9061800000000000  6.3494000000000002
  2.4027400000000001  7.9824500000000000  4.5112399999999999
  3.1684500000000000  6.9620300000000004  7.1167800000000003
  3.9836499999999999  1.8600099999999999  5.3438999999999997
  0.5560300000000000  5.7956799999999999  6.0599499999999997
  1.4330700000000001  0.9032800000000000  4.0428699999999997
  4.0490599999999999  4.8936900000000003  2.9506999999999999
  4.9126799999999999  0.0000000000000000  0.9834700000000000
  3.1270300000000000  5.9306599999999996  0.1996700000000000
  2.2633999999999999  1.0369699999999999  2.1668900000000000
  4.9985700000000000  1.9501400000000000  3.3676599999999999
  0.5177200000000000  6.8438299999999996  1.4004399999999999
  3.0995499999999998  7.8372400000000004  2.5340099999999999
  3.9631799999999999  2.9435500000000001  0.5667900000000000
  1.3538699999999999  3.8567200000000001  1.7675600000000000
  0.4902000000000000  8.7504100000000005  3.7347800000000002
  2.1657000000000002  4.9285100000000002  7.0155500000000002
  3.2244899999999999  0.0108400000000000  4.9460600000000001
  1.3847400000000001  5.9350199999999997  4.1192799999999998
  0.5192800000000000  1.0514900000000000  6.0889300000000004
  3.1909600000000000  2.1564399999999999  7.2454200000000002
  4.1322799999999997  6.9008200000000004  5.3513200000000003
  1.4135400000000000  7.7440800000000003  6.3901100000000000
  2.2140800000000000  2.9621900000000001  4.5125200000000003
  4.8418900000000002  3.9169800000000001  5.6932900000000002
  4.1473500000000003  8.5159500000000001  7.6287700000000003
  4.7430199999999996  5.7322100000000002  8.0181100000000001
