Ti  N  H 
 1.0000000000000000
    10.6223399999999994    0.0000000000000000    0.0000000000000000
    -7.3988763640000004    7.6217278630000003    0.0000000000000000
     0.0000000000000000    0.0000000000000000   29.9953000000000003
 Ti  N   H  
  32  16   1
Cartesian
  4.9753400000000001  0.1420300000000000  0.4007400000000000
  2.3197399999999999  1.2651699999999999  1.3380900000000000
 -0.0671700000000000  2.2746700000000000  2.4113199999999999
 -2.7226900000000001  3.3977700000000000  3.3486799999999999
  3.3837899999999999  0.8095599999999999  4.1604500000000000
  0.7052100000000000  1.8362499999999999  5.1484399999999999
 -1.7471699999999999  2.9947599999999999  6.0322100000000001
  4.6685299999999996  0.2967500000000000  6.9270199999999997
  1.2759100000000001  3.9528900000000000  0.4007400000000000
 -1.3796999999999999  5.0760300000000003  1.3380900000000000
 -3.7666100000000000  6.0855300000000003  2.4113199999999999
 -6.4221300000000001  7.2086300000000003  3.3486799999999999
 -0.3075200000000000  4.6135599999999997  4.1448900000000002
 -2.9525000000000001  5.7324299999999999  5.1348200000000004
 -5.4078999999999997  6.8047800000000001  6.0373000000000001
  0.9154500000000000  4.0106299999999999  6.8564600000000002
 10.2865099999999998  0.1420300000000000  0.4007400000000000
  7.6309100000000001  1.2651699999999999  1.3380900000000000
  5.2439999999999998  2.2746700000000000  2.4113199999999999
  2.5884800000000001  3.3977700000000000  3.3486799999999999
  8.6897300000000008  0.8025099999999999  4.1556300000000004
  6.0540000000000003  1.9574199999999999  5.1222099999999999
  3.5642999999999998  2.9186500000000000  6.0529799999999998
  9.5779099999999993  0.3385000000000000  7.0420400000000001
  6.5870800000000003  3.9528900000000000  0.4007400000000000
  3.9314700000000000  5.0760300000000003  1.3380900000000000
  1.5445599999999999  6.0855300000000003  2.4113199999999999
 -1.1109599999999999  7.2086300000000003  3.3486799999999999
  4.9897700000000000  4.6289100000000003  4.1780700000000000
  2.4033600000000002  5.8092400000000000  5.1559499999999998
 -0.0726600000000000  6.8291399999999998  6.1140100000000004
  6.2020299999999997  4.1317800000000000  6.9321999999999999
  1.6482699999999999  1.5491500000000000  3.2808899999999999
  0.6043900000000000  1.9906400000000000  0.4685300000000000
 -0.2232800000000000  2.2426699999999999  7.0474399999999999
 -0.9863400000000000  2.6489500000000001  4.2022000000000004
 -2.0511699999999999  5.3600199999999996  3.2808899999999999
 -3.0950500000000001  5.8015100000000004  0.4685300000000000
 -3.8409399999999998  6.1637100000000000  7.0424699999999998
 -4.6792999999999996  6.4699799999999996  4.2026399999999997
  6.9594399999999998  1.5491500000000000  3.2808899999999999
  5.9155600000000002  1.9906400000000000  0.4685300000000000
  5.1781300000000003  2.3384000000000000  7.0377000000000001
  4.3194800000000004  2.6638199999999999  4.2045800000000000
  3.2599999999999998  5.3600199999999996  3.2808899999999999
  2.2161200000000001  5.8015100000000004  0.4685300000000000
  1.5101400000000000  5.9382000000000001  7.0152200000000002
  0.6193800000000000  6.4625300000000001  4.2337699999999998
  7.7544800000000000  0.6134400000000000  7.3340699999999996
