Al Ta Al Ta Al Ta  H 
 1.0000000000000000
     5.6649795991069505    0.0000000000000000    0.0000000000000000
    -2.8324897995534752    5.0436156430789518    0.0000000000000000
     0.0000000000000000    0.0000000000000000   24.6872562529593864
 Al  Ta  Al  Ta  Al  Ta  H  
   2   2   2   2   2   2   1
Cartesian
  0.0000000000000000  0.0000000000000000  9.9999992923310419
  2.8324897995534752  0.0000000000000000  9.9999992923310419
  1.4162448997767376  2.5218076215394900  9.9999992923310419
 -1.4162448997767376  2.5218076215394900  9.9999992923310419
  2.8324897995534752  1.5907236874294146 12.3436282264796855
  0.0000000000000000  1.5907236874294146 12.3436282264796855
 -1.4162448997767376  4.1125313089689044 12.3436282264796855
  1.4162448997767376  4.1125313089689044 12.3436282264796855
  0.0013052999076280  3.2254775717429487 14.8224498510611618
  2.8311868996456777  3.2254808717427150 14.8224529510609422
  4.2487421993296817  0.7034100502218508 14.6279867648227118
  1.4162464997766244  0.7421285474818627 14.5423333708841369
  1.4162626997754779  4.4237204869470110 15.9379197721228127
