Mo  N  H 
 1.0000000000000000
     5.2865300000000000    0.0000000000000000    0.0000000000000000
     9.0036383979999997    5.5429318380000003    0.0000000000000000
     0.0000000000000000    0.0000000000000000   29.5315000000000012
 Mo  N   H  
  16   8   1
Cartesian
  1.0322199999999999  0.4739800000000000  1.5645800000000001
  3.4695700000000000  1.1640699999999999  0.2988600000000000
  5.5340800000000003  1.7486299999999999  4.0257300000000003
  7.9713799999999999  2.4387200000000000  2.7597200000000002
  5.5847899999999999  0.2196400000000000  6.4409500000000000
  2.6689900000000000  0.9318700000000000  5.2237700000000000
  4.6776000000000000  1.5172600000000001  8.8959299999999999
  7.1747199999999998  2.2064800000000000  7.5513300000000001
  5.5340400000000001  3.2454399999999999  1.5645800000000001
  7.9713900000000004  3.9355400000000000  0.2988600000000000
 10.0358999999999998  4.5200899999999997  4.0257300000000003
 12.4731900000000007  5.2101899999999999  2.7597200000000002
 10.0481700000000007  3.0002599999999999  6.4610500000000002
  7.1524000000000001  3.7192500000000002  5.2140800000000000
  9.0216799999999999  4.1658799999999996  8.9164300000000001
 11.7253299999999996  5.0204500000000003  7.8502500000000000
  4.5018000000000002  1.4563500000000000  2.1623000000000001
  9.0036500000000004  2.7309999999999999  4.6231600000000004
  3.7132700000000001  1.2073100000000001  7.0798100000000002
  9.8307099999999998  2.9792700000000001 10.0916599999999992
  9.0036199999999997  4.2278200000000004  2.1623000000000001
 13.5054700000000008  5.5024699999999998  4.6231600000000004
  8.1597799999999996  4.0006399999999998  7.0560000000000000
 12.8728800000000003  5.3652899999999999  9.5124499999999994
  6.4870700000000001  1.6067800000000001  9.1579599999999992
