Ta  N  H 
 1.0000000000000000
     4.9387499999999998    0.0000000000000000    0.0000000000000000
     0.0000000000000000    9.1817899999999995    0.0000000000000000
     0.0000000000000000    0.0000000000000000   31.8066999999999993
 Ta  N   H  
  24  12   1
Cartesian
  1.2211600000000000  4.5908899999999999  3.0874799999999998
  1.2211600000000000  0.0000000000000000  0.4370200000000000
  1.2211600000000000  3.0647000000000002  0.4440200000000000
  1.2211600000000000  7.6555900000000001  3.0947900000000002
  1.2211600000000000  6.1170900000000001  0.4440200000000000
  1.2211600000000000  1.5262000000000000  3.0947900000000002
  3.7175900000000000  4.5908899999999999  4.8642000000000003
  3.7175900000000000  0.0000000000000000  2.2134299999999998
  3.7175900000000000  1.5262000000000000  4.8568800000000003
  3.7175900000000000  6.1170900000000001  2.2064300000000001
  3.7175900000000000  7.6555900000000001  4.8568800000000003
  3.7175900000000000  3.0647000000000002  2.2064300000000001
  1.2485500000000000  4.5908899999999999  8.4493200000000002
  1.2140000000000000  0.0000000000000000  5.7525000000000004
  1.2211399999999999  3.0648100000000000  5.7452699999999997
  1.2174100000000001  7.6201100000000004  8.4114799999999992
  1.2211399999999999  6.1169799999999999  5.7452699999999997
  1.2174100000000001  1.5616800000000000  8.4114799999999992
  3.7840900000000000  4.5908899999999999  9.8879099999999998
  3.6930800000000001  0.0000000000000000  7.5235500000000002
  3.7067500000000000  1.5207299999999999  9.9160000000000004
  3.7388499999999998  6.1219099999999997  7.4439500000000001
  3.7067500000000000  7.6610600000000000  9.9160000000000004
  3.7388499999999998  3.0598800000000002  7.4439500000000001
  2.4693700000000001  6.1212200000000001  3.9758399999999998
  2.4693700000000001  1.5303300000000000  1.3253900000000001
  2.4693700000000001  3.0605699999999998  3.9758399999999998
  2.4693700000000001  7.6514600000000002  1.3253900000000001
  0.0000000000000000  4.5908899999999999  1.3253900000000001
  0.0000000000000000  0.0000000000000000  3.9758399999999998
  2.4734500000000001  6.1215400000000004  9.3029499999999992
  2.4541400000000002  1.5320900000000000  6.6172399999999998
  2.4734500000000001  3.0602499999999999  9.3029499999999992
  2.4541400000000002  7.6497000000000002  6.6172399999999998
  0.0376300000000000  4.5908899999999999  6.6242099999999997
  0.1267200000000000  0.0000000000000000  9.3377800000000004
  3.1587800000000001  0.0000000000000000 10.9992300000000007
