Tl Ag Tl Ag Tl Ag Tl  H 
 1.0000000000000000
     6.8904515123841010    0.0000000000000000    0.0000000000000000
     3.4452257561920505    5.9673065777122076    0.0000000000000000
     0.0000000000000000    0.0000000000000000   25.6260291865253365
 Tl  Ag  Tl  Ag  Tl  Ag  Tl  H  
   1   1   3   1   3   1   2   1
Cartesian
  0.0000000000000000  0.0000000000000000  9.9999994219874502
  1.7226128780960253  2.9836532888561038  9.9999994219874502
  3.4452257561920505  0.0000000000000000  9.9999994219874502
  5.1678386342880760  2.9836532888561038  9.9999994219874502
  6.8904515158293265  3.9782043871305737 12.8130145932626682
  5.1678386377333014  0.9945510982744701 12.8130145932626682
  3.4452257596372764  3.9782043871305737 12.8130145932626682
  1.7226128815412509  0.9945510982744701 12.8130145932626682
  3.5256530252353442  2.1198293601947009 15.7970770772246176
  5.1677449792711192  5.0324108163470171 15.3446730566313043
  6.8098195039097940  2.1197206060323226 15.7974568037251011
  8.6131726601447411  5.0672476537823723 15.7589941839984640
  1.7217153623342798  0.5387375678149220 16.3689589737601331
