 W  N  C  H  O 
 1.0000000000000000
     4.9779200000000001    0.0000000000000000    0.0000000000000000
     0.8442721010000001    5.2673169949999998    0.0000000000000000
     0.0000000000000000    0.0000000000000000   37.4144000000000005
 W   N   C   H   O  
  12  18   1   1   1
Cartesian
  4.8712400000000002  0.0841200000000000  0.1418000000000000
  2.4189400000000001  0.3715600000000000  1.5807599999999999
  4.9122500000000002  0.8754300000000000  2.8996200000000001
  2.4087900000000002  2.9874600000000000  0.8118900000000000
  2.4065300000000001  1.2770600000000001  4.2989100000000002
  4.9321999999999999  1.5645000000000000  5.7378700000000000
  2.4254300000000000  2.0767400000000000  7.0388200000000003
  4.9219999999999997  4.1804100000000002  4.9690099999999999
  4.8771599999999999  2.4677600000000002  8.4366199999999996
  2.4770200000000000  2.7163800000000000  9.9108999999999998
  4.8094999999999999  3.1629299999999998 11.3021399999999996
  1.6079100000000000  0.0493400000000000  9.2584700000000009
  4.1053300000000004  4.8907600000000002  3.3029400000000000
  4.0728099999999996  4.0673700000000004  0.4804000000000000
  1.5669000000000000  4.4690599999999998  1.8800699999999999
  0.7186900000000001  2.4779000000000000  4.0153100000000004
  3.2189899999999998  2.0641600000000002  2.5273400000000001
  0.8208000000000000  1.6636299999999999  1.1778100000000000
  0.7901600000000000  0.8502999999999999  7.4793099999999999
  1.6081600000000000  5.2603099999999996  4.6375099999999998
  3.2303600000000001  0.3864500000000000  6.0340499999999997
  3.1951700000000001  3.6305200000000002  8.1497899999999994
  0.7295100000000000  3.2635800000000001  6.6752200000000004
  3.3340100000000001  2.8565700000000001  5.3349200000000003
  3.3752000000000000  2.0289899999999998 11.5412300000000005
  3.2289200000000000  1.2029200000000000  8.7544599999999999
  0.7625999999999999  1.5895999999999999 10.2115100000000005
  5.5374299999999996  3.5328300000000001 12.9194999999999993
  3.4367600000000000  4.4873599999999998 10.6338799999999996
  0.8743600000000000  3.9820199999999999  9.5515399999999993
  0.7800900000000000  3.5256799999999999 14.2728000000000002
  4.8192199999999996  3.5837800000000000 14.8679100000000002
  1.8925900000000000  3.4537000000000000 14.7867099999999994
