Nb  N Nb  N  H 
 1.0000000000000000
     5.3445200000000002    0.0000000000000000    0.0000000000000000
     0.0000000000000000    9.7873800000000006    0.0000000000000000
     0.0000000000000000    0.0000000000000000   27.5406000000000013
 Nb  N   Nb  N   H  
   8  10   8  10   1
Cartesian
  0.4423659204000000  4.0122385572000008  3.7135745039999999
  1.3059869072000001  8.9059285572000011  1.7466248520000003
  3.2419323867999998  2.9958191442000000  2.5965277680000001
  4.1056068188000001  7.8895091441999998  0.6293027100000000
  4.8561912076000002  6.7915608558000011  3.3051474060000001
  0.3752921944000001  1.8978708558000001  1.3379223480000000
  2.3112911192000003  5.7751414428000007  2.1878252640000002
  3.1749121059999998  0.8814514428000001  0.2206002060000000
  4.0490617972000003  4.8936900000000003  2.9506998840000001
  4.9126827840000002  0.0000000000000000  0.9834748260000000
  3.1270252068000000  5.9306629110000006  0.1996693500000000
  2.2634042200000000  1.0369729110000001  2.1668944080000001
  4.9985692204000003  1.9501354650000002  3.3676645680000004
  0.5177236524000000  6.8438254650000010  1.4004395100000000
  3.0995543739999998  7.8372445350000000  2.5340106059999998
  3.9631753608000002  2.9435545350000005  0.5667855480000000
  1.3538738064000000  3.8567170890000004  1.7675557080000002
  0.4901993744000000  8.7504070890000012  3.7347807660000005
  3.8591609180130932  4.0151671010726799  7.3824766785224565
  4.9648847920174877  8.9337085460437056  5.9333290362940847
  1.4552084407036363  2.8961708726316320  6.3511795101526980
  2.3948248088000530  7.9702393407426078  4.5124369934643997
  3.1599414377696600  6.9501534722420786  7.1129788823003715
  3.9778164169717534  1.8483078578037919  5.3427073711705457
  0.5510579228066351  5.7830486637976568  6.0615574788885018
  1.4290404252849791  0.8980574759865203  4.0437731729030393
  2.1626929358503770  4.9177446368140298  7.0175543288199664
  3.2140978186669118  0.0017102459099094  4.9496364903922734
  1.3861336724630919  5.9296180268624958  4.1162591332575582
  0.5144646892321720  1.0426491263621984  6.0865326312236254
  3.1887529161249124  2.1470774094963931  7.2463598842238648
  4.1276030536037380  6.8910695640057389  5.3505438894795860
  1.4068609925097428  7.7338476736381780  6.3925061834596395
  2.2087213889291784  2.9544220411450741  4.5140617280070856
  4.8386834125097575  3.9045509098966900  5.6910854180687176
  4.1396050852939927  8.5040232833350142  7.6256314723287391
 -0.5748846478933036  5.7251066563939732  7.9800971160687837
