Cu Ag Cu Ag Cu Ag Cu  H 
 1.0000000000000000
     5.3853576188949317    0.0000000000000000    0.0000000000000000
     2.6926788094474658    4.6638566699533177    0.0000000000000000
     0.0000000000000000    0.0000000000000000   24.3971252734910564
 Cu  Ag  Cu  Ag  Cu  Ag  Cu  H  
   1   1   3   1   3   1   2   1
Cartesian
  0.0000000000000000  0.0000000000000000  9.9999994198423234
  1.3463394047237329  2.3319283349766589  9.9999994198423234
  2.6926788094474658  0.0000000000000000  9.9999994198423234
  4.0390182141711986  2.3319283349766589  9.9999994198423234
  5.3853576215876107  3.1092377815234973 12.1985626367455282
  4.0390182168638775  0.7773094465468384 12.1985626367455282
  2.6926788121401444  3.1092377815234973 12.1985626367455282
  1.3463394074164117  0.7773094465468384 12.1985626367455282
  2.6503149125871808  1.5225660857353258 14.3490353381802631
  4.0390378087948946  3.8106374900629718 14.5308163912201476
  5.4270520242521085  1.5227753436563931 14.3489605853884257
  6.7312973385322632  3.8013823323412796 14.2956050726974375
  1.3460503564242541  1.0654063993743590 15.3323032607874179
