Ni  N  H 
 1.0000000000000000
     7.4439599999999997    0.0000000000000000    0.0000000000000000
     0.0000000000000000    5.2636799999999999    0.0000000000000000
     0.0000000000000000    0.0000000000000000   31.5821000000000005
 Ni  N   H  
  32   8   1
Cartesian
  0.0000000000000000  2.6318400000000000  1.9738800000000001
  0.0000000000000000  0.0000000000000000  4.6056200000000000
  0.0000000000000000  2.6318400000000000  4.6056200000000000
  0.0000000000000000  0.0000000000000000  1.9738800000000001
  1.8609899999999999  3.9477600000000002  0.6578600000000000
  1.8609899999999999  1.3159200000000000  3.2899099999999999
  1.8609899999999999  1.3159200000000000  0.6578600000000000
  1.8609899999999999  3.9477600000000002  3.2899099999999999
 -0.0233300000000000  2.6318400000000000  7.1884300000000003
 -0.0185100000000000  0.0000000000000000  9.7223699999999997
 -0.0507100000000000  2.6318400000000000  9.8045000000000009
 -0.0200900000000000  0.0000000000000000  7.1787000000000001
  1.8543799999999999  3.9401199999999998  5.9207500000000000
  1.8395699999999999  1.3845499999999999  8.5237300000000005
  1.8543799999999999  1.3235600000000001  5.9207500000000000
  1.8395699999999999  3.8791300000000000  8.5237300000000005
  3.7219799999999998  2.6318400000000000  1.9738800000000001
  3.7219799999999998  0.0000000000000000  4.6056200000000000
  3.7219799999999998  2.6318400000000000  4.6056200000000000
  3.7219799999999998  0.0000000000000000  1.9738800000000001
  5.5829700000000004  3.9477600000000002  0.6578600000000000
  5.5829700000000004  1.3159200000000000  3.2899099999999999
  5.5829700000000004  1.3159200000000000  0.6578600000000000
  5.5829700000000004  3.9477600000000002  3.2899099999999999
  3.7063000000000001  2.6318400000000000  7.2157900000000001
  3.6835499999999999  0.0000000000000000  9.7210999999999999
  3.6677800000000000  2.6318400000000000 10.0231899999999996
  3.7030200000000000  0.0000000000000000  7.1552600000000002
  5.5690600000000003  3.9429799999999999  5.9200699999999999
  5.5458800000000004  1.3781399999999999  8.5375999999999994
  5.5690600000000003  1.3207000000000000  5.9200699999999999
  5.5458800000000004  3.8855400000000002  8.5375999999999994
  1.8609899999999999  2.6318400000000000  4.6056200000000000
  1.8609899999999999  0.0000000000000000  1.9738800000000001
  1.8102100000000001  2.6318400000000000  9.8675599999999992
  1.8436699999999999  0.0000000000000000  7.2286099999999998
  5.5829700000000004  2.6318400000000000  4.6056200000000000
  5.5829700000000004  0.0000000000000000  1.9738800000000001
  5.5261399999999998  2.6318400000000000  9.8755100000000002
  5.5599200000000000  0.0000000000000000  7.2320700000000002
  3.5996199999999998  2.6318400000000000 11.4826099999999993
