Cu Ga Cu Ga Cu Ga  H 
 1.0000000000000000
     5.2723486268922279    0.0000000000000000    0.0000000000000000
    -2.6361748134460785    4.5659886768791322    0.0000000000000000
     0.0000000000000000    0.0000000000000000   24.3048532800208577
 Cu  Ga  Cu  Ga  Cu  Ga  H  
   3   1   3   1   3   1   1
Cartesian
  0.0000000000000000  0.0000000000000000  9.9999991873992791
 -1.3180874067230393  2.2829943384395661  9.9999991873992791
  1.3180869067230747  2.2829943384395661  9.9999991873992791
 -0.0000004999999645  4.5659886768791322  9.9999991873992791
  2.6361741494156337  1.5219962241043812 12.1524266400104288
  1.3180867426925942  3.8049905625439475 12.1524266400104288
 -1.3180875707535198  3.8049905625439475 12.1524266400104288
 -0.0000001640304804  1.5219962241043812 12.1524266400104288
 -0.0027473250290522  3.0487655729619680 14.3279490260004660
  1.3218322057086036  0.7260286727413329 14.3090667313163387
  3.8792268508297543  0.8030199080800239 14.3801429692737130
  2.5565706588229498  3.0373836453298249 14.3858502349209267
 -0.7792888867609498  1.9740415134726390 15.3918253414277171
