Cu Pt Cu Pt Cu Pt  H 
 1.0000000000000000
     5.3017396654319606    0.0000000000000000    0.0000000000000000
    -2.6508698327159803    4.5914390937557137    0.0000000000000000
     0.0000000000000000    0.0000000000000000   24.3288509515397919
 Cu  Pt  Cu  Pt  Cu  Pt  H  
   3   1   3   1   3   1   1
Cartesian
  0.0000000000000000  0.0000000000000000  9.9999998004886965
 -1.3254349163579902  2.2957206072257899  9.9999998004886965
  1.3254349163579902  2.2957206072257899  9.9999998004886965
  2.6508698327159803  0.0000000000000000  9.9999998004886965
  2.6508698327159803  1.5304802280925378 12.1644254757698960
  1.3254349163579902  3.8262008353183274 12.1644254757698960
 -1.3254349163579902  3.8262008353183274 12.1644254757698960
  0.0000000000000000  1.5304802280925378 12.1644254757698960
 -0.0000429440912900  3.0910584322657324 14.3417062792178704
  1.3514998590751532  0.7501537487412990 14.3417349086120645
  3.9502753280125660  0.7502226713569495 14.3418674521037008
  2.6508496861052517  3.0609519734016106 14.3556445527982905
  2.6508565783668168  3.0609609863590421 15.9398186795264571
