Nb  N Nb  N Nb  N Nb  N  H 
 1.0000000000000000
     5.3335600000000003    0.0000000000000000    0.0000000000000000
     0.0000000000000000    9.9953599999999998    0.0000000000000000
     0.0000000000000000    0.0000000000000000   32.3329999999999984
 Nb  N   Nb  N   Nb  N   Nb  N   H  
   6   3   6   3   6   3   6   3   1
Cartesian
  1.3338700204000000  3.7548069607999999  2.3105161799999996
  3.9991566236000002  3.7548069607999999  3.8492436500000000
  4.0006500204000002  3.7548069607999999  0.7688787399999999
  0.4439655344000000  1.2428730392000000  0.7688787399999999
  0.4454589312000000  1.2428730392000000  3.8492436500000000
  3.1107455343999999  1.2428730392000000  2.3105161799999996
  4.8891144452000006  2.4988400000000000  2.3095461899999998
  2.2223344452000000  2.4988400000000000  0.7698487300000000
  2.2223344452000000  0.0000000000000000  3.8492436500000000
  3.9807201246452482  3.7518126180110252  6.9560243196975060
  1.2804318388304317  3.9407125544977983  8.2593314238970468
  1.3356185875324063  3.7310345427812548  5.3632528758898772
  3.1083889036521657  1.2671430669924157  5.3634257222146102
  3.1635596550297400  1.0580338674616525  8.2594991287689474
  0.4635580224551633  1.2465837135615732  6.9556780241970486
  2.2220574288896606  2.4993205632005178  6.9645397105895679
  4.8889057606300179  2.4988530431072404  5.3708340967602188
  4.8725086648038980 -0.0646178188944660  8.4065148770379654
  1.3338700204000000  8.7524869607999989  2.3105161799999996
  3.9991566236000002  8.7524869607999989  3.8492436500000000
  4.0006500204000002  8.7524869607999989  0.7688787399999999
  0.4439655344000000  6.2405530391999999  0.7688787399999999
  0.4454589312000000  6.2405530391999999  3.8492436500000000
  3.1107455343999999  6.2405530391999999  2.3105161799999996
  4.8891144452000006  7.4965200000000003  2.3095461899999998
  2.2223344452000000  7.4965200000000003  0.7698487300000000
  2.2223344452000000  4.9976799999999999  3.8492436500000000
  3.9650205882440650  8.7373753556614524  6.9042446852150059
  1.2640653794844001  8.8937867622143632  8.2739320594206323
  1.3279359550440919  8.7321976041347700  5.3509979577114128
  3.1161535685291741  6.2612721507607612  5.3512782317359493
  3.1794955783481620  6.0999910455742556  8.2740801819544583
  0.4785934041940154  6.2565780330211531  6.9042719552546270
  2.2219104205581881  7.4968687259978948  6.9412485131138650
  4.8887328675113224  7.4967179752889530  5.3570968877812302
  4.9048025400051039  5.0631644569215473  8.4067234529488797
  4.8881029061691521  2.4992392354057964  8.2484508784453698
