Cu In Cu In Cu In  H 
 1.0000000000000000
     5.5018346106522156    0.0000000000000000    0.0000000000000000
    -2.7509178053260723    4.7647286628149192    0.0000000000000000
     0.0000000000000000    0.0000000000000000   24.4922282667609110
 Cu  In  Cu  In  Cu  In  H  
   3   1   3   1   3   1   1
Cartesian
  0.0000000000000000  0.0000000000000000  9.9999993551246877
 -1.3754589026630362  2.3823643314074596  9.9999993551246877
  1.3754584026630716  2.3823643314074596  9.9999993551246877
  2.7509173053261078  0.0000000000000000  9.9999993551246877
  2.7509171414103704  1.5882428860167301 12.2461141333804555
  1.3754582387473340  3.9706072174241900 12.2461141333804555
 -1.3754590665787738  3.9706072174241900 12.2461141333804555
 -0.0000001639157374  1.5882428860167301 12.2461141333804555
 -0.0548627796112482  3.2304108650291310 14.4589188443954928
  1.4268844371968106  0.7708805188626598 14.3680738877954912
  4.0496061170953510  0.7069103915469425 14.3607941117722184
  2.6644384674309851  3.1472089825299099 14.8240911100289843
 -0.9880904138134905  3.0935551121839131 15.7603936053974092
