Nb  N Nb  N Nb  N Nb  N  H 
 1.0000000000000000
     5.3335600000000003    0.0000000000000000    0.0000000000000000
     0.0000000000000000    9.9953599999999998    0.0000000000000000
     0.0000000000000000    0.0000000000000000   32.3329999999999984
 Nb  N   Nb  N   Nb  N   Nb  N   H  
   6   3   6   3   6   3   6   3   1
Cartesian
  1.3338700204000000  3.7548069607999999  2.3105161799999996
  3.9991566236000002  3.7548069607999999  3.8492436500000000
  4.0006500204000002  3.7548069607999999  0.7688787399999999
  0.4439655344000000  1.2428730392000000  0.7688787399999999
  0.4454589312000000  1.2428730392000000  3.8492436500000000
  3.1107455343999999  1.2428730392000000  2.3105161799999996
  4.8891144452000006  2.4988400000000000  2.3095461899999998
  2.2223344452000000  2.4988400000000000  0.7698487300000000
  2.2223344452000000  0.0000000000000000  3.8492436500000000
  3.9744904051120509  3.7556766759547955  6.9036994952517992
  1.3087149520625385  3.9594366381059958  8.3198484261538486
  1.3287290920386701  3.7419444087612792  5.3642814994248669
  3.1175418461677129  1.2629406662923428  5.3683766375472945
  3.1654400642116358  1.0846610616501779  8.2716928688550944
  0.4662818672756875  1.2699280452090813  6.9184980613463543
  2.2098393280339614  2.5240645730356355  6.9676938917615470
  4.8868046000634955  2.5035569006090728  5.3560781457788877
  4.8793242528114451  0.0118486038494824  8.3892561199581710
  1.3338700204000000  8.7524869607999989  2.3105161799999996
  3.9991566236000002  8.7524869607999989  3.8492436500000000
  4.0006500204000002  8.7524869607999989  0.7688787399999999
  0.4439655344000000  6.2405530391999999  0.7688787399999999
  0.4454589312000000  6.2405530391999999  3.8492436500000000
  3.1107455343999999  6.2405530391999999  2.3105161799999996
  4.8891144452000006  7.4965200000000003  2.3095461899999998
  2.2223344452000000  7.4965200000000003  0.7698487300000000
  2.2223344452000000  4.9976799999999999  3.8492436500000000
  3.9614839415996319  8.7343685233346040  6.9247179724983452
  1.2589124704159587  8.9327784034174211  8.2778298652694886
  1.3195964804400557  8.7377749730110512  5.3730828392547823
  3.1046162030044311  6.2610074280788393  5.3695676650479260
  3.1205916447254922  6.0427670833660256  8.3275475814717073
  0.4571237977271524  6.2527187442893917  6.9055665061431002
  2.2173639165875305  7.4819421091591121  6.9786302104959281
  4.8817624419517465  7.4985026425330839  5.3576469559351096
  4.8812288071001069  5.0030738336499097  8.3735633164928753
  2.2095872190348360  4.9988308210904231  9.7262426750508268
