Nb  N  H 
 1.0000000000000000
     5.3335600000000003    0.0000000000000000    0.0000000000000000
     0.0000000000000000    9.9953599999999998    0.0000000000000000
     0.0000000000000000    0.0000000000000000   32.3329999999999984
 Nb  N   H  
  24  12   1
Cartesian
  1.3338699999999999  3.7548100000000000  2.3105199999999999
  3.9991599999999998  3.7548100000000000  3.8492400000000000
  4.0006500000000003  3.7548100000000000  0.7688800000000000
  0.4439700000000000  1.2428699999999999  0.7688800000000000
  0.4454600000000000  1.2428699999999999  3.8492400000000000
  3.1107499999999999  1.2428699999999999  2.3105199999999999
  3.9548000000000001  3.7502599999999999  6.9284400000000002
  1.2643400000000000  3.9064600000000000  8.2919499999999999
  1.3141700000000001  3.7393900000000002  5.3703500000000002
  3.1130700000000000  1.2649699999999999  5.3573199999999996
  3.0969799999999998  1.1113200000000001  8.2410899999999998
  0.4489400000000000  1.2568500000000000  6.9366099999999999
  1.3338699999999999  8.7524899999999999  2.3105199999999999
  3.9991599999999998  8.7524899999999999  3.8492400000000000
  4.0006500000000003  8.7524899999999999  0.7688800000000000
  0.4439700000000000  6.2405499999999998  0.7688800000000000
  0.4454600000000000  6.2405499999999998  3.8492400000000000
  3.1107499999999999  6.2405499999999998  2.3105199999999999
  3.9955799999999999  8.7386800000000004  6.9366899999999996
  1.3473299999999999  8.8842599999999994  8.2411799999999999
  1.3315399999999999  8.7304600000000008  5.3573399999999998
  3.1303399999999999  6.2561900000000001  5.3702899999999998
  3.1798600000000001  6.0889400000000000  8.2919300000000007
  0.4894400000000000  6.2453200000000004  6.9284299999999996
  4.8891099999999996  2.4988400000000000  2.3095500000000002
  2.2223299999999999  2.4988400000000000  0.7698500000000000
  2.2223299999999999  0.0000000000000000  3.8492400000000000
  2.1879499999999998  2.5108199999999998  6.9370200000000004
  4.8803999999999998  2.4981599999999999  5.3712299999999997
  4.8889899999999997  0.0002400000000000  8.5702099999999994
  4.8891099999999996  7.4965200000000003  2.3095500000000002
  2.2223299999999999  7.4965200000000003  0.7698500000000000
  2.2223299999999999  4.9976799999999999  3.8492400000000000
  2.2564299999999999  7.4846899999999996  6.9371099999999997
  4.8977300000000001  7.4973799999999997  5.3712099999999996
  4.8889800000000001  4.9978699999999998  8.4107000000000003
  4.8891299999999998  0.0002600000000000  9.6107899999999997
