Cr Mo Cr Mo Cr Mo Cr  H 
 1.0000000000000000
     5.2919557080267117    0.0000000000000000    0.0000000000000000
     2.6459778540133558    4.5829659420438329    0.0000000000000000
     0.0000000000000000    0.0000000000000000   24.3208652981519080
 Cr  Mo  Cr  Mo  Cr  Mo  Cr  H  
   1   1   3   1   3   1   2   1
Cartesian
  0.0000000000000000  0.0000000000000000 10.0000000000000000
  1.3229889109999999  2.2914840129999998 10.0000000000000000
  2.6459778230000000  0.0000000000000000 10.0000000000000000
  3.9689667339999999  2.2914840129999998 10.0000000000000000
  5.2919556459999999  3.0553120169999999 12.1604318459999998
  3.9689667339999999  0.7638280039999999 12.1604318459999998
  2.6459778230000000  3.0553120169999999 12.1604318459999998
  1.3229889109999999  0.7638280039999999 12.1604318459999998
  2.5894310269999998  0.8425245590000000 14.1686613549999993
  3.9547803440000000  3.0477401739999999 14.2780568619999997
  5.3059125749999998  0.8360398990000000 14.1846188249999994
  6.5968312830000002  3.1065518980000002 13.9850985580000007
  1.3111347090000001  0.1258574640000000 15.2986377900000008
