Co Tl Co Tl Co Tl  H 
 1.0000000000000000
     5.6520846000194895    0.0000000000000000    0.0000000000000000
     1.9162368643938559    5.3173386237084248    0.0000000000000000
     0.0000000000000000    0.0000000000000000   24.6243802574089266
 Co  Tl  Co  Tl  Co  Tl  H  
   2   2   2   2   2   2   1
Cartesian
  0.0000000000000000  0.0000000000000000  9.9999992923310419
  3.7841607322066730  2.6586693118542124  9.9999992923310419
  2.8260421000097593  0.0000000000000000  9.9999992923310419
  0.9581186321969138  2.6586693118542124  9.9999992923310419
  5.6520841000195254  3.9710318189823850 12.3121902287044556
  1.8679234678128451  1.3123625071281726 12.3121902287044556
  2.8260421000097593  3.9710318189823850 12.3121902287044556
  4.6939654678226113  1.3123625071281726 12.3121902287044556
  3.7262561363044018  2.6099716153003976 14.4273416790217439
  7.5023153690843927  5.2791320264121877 14.4274540790137884
  6.5625908355857856  2.6252524142190228 14.9889902392756156
  4.6859395683905793  5.2775664265229798 15.0128680375858572
  6.5535862362230137  2.6186120146889431 16.8041901108195439
