Mo  N  H 
 1.0000000000000000
     5.7048800000000002    0.0000000000000000    0.0000000000000000
     0.0000000000000000    5.6866099999999999    0.0000000000000000
     0.0000000000000000    0.0000000000000000   29.6433999999999997
 Mo  N   H  
  16  16   1
Cartesian
  0.7131100000000000  2.8433000000000002  1.2352399999999999
  0.7131100000000000  0.0000000000000000  1.2352399999999999
  2.1393300000000002  2.8433000000000002  3.7054200000000002
  2.1393300000000002  0.0000000000000000  3.7054200000000002
  0.7131100000000000  2.8086899999999999  6.1952600000000002
  0.7131100000000000  5.6731400000000001  6.1976000000000004
  2.0706300000000000  2.8605100000000001  8.5082100000000001
  2.0654100000000000  5.6047399999999996  8.5145300000000006
  3.5655500000000000  2.8433000000000002  1.2352399999999999
  3.5655500000000000  0.0000000000000000  1.2352399999999999
  4.9917699999999998  2.8433000000000002  3.7054200000000002
  4.9917699999999998  0.0000000000000000  3.7054200000000002
  3.5655500000000000  2.8087599999999999  6.2050700000000001
  3.5655500000000000  5.6790099999999999  6.2112200000000000
  5.0604699999999996  2.8605100000000001  8.5082100000000001
  5.0656900000000000  5.6047399999999996  8.5145300000000006
  2.1393300000000002  4.2649600000000003  2.0584400000000000
  2.1393300000000002  1.4216500000000001  0.4117500000000000
  0.7131100000000000  4.2649600000000003  4.5289200000000003
  0.7131100000000000  1.4216500000000001  2.8819300000000001
  2.1487699999999998  4.2402600000000001  6.9585400000000002
  2.1365599999999998  1.4048400000000001  5.3570500000000001
  0.7131100000000000  4.2275000000000000  9.3581000000000003
  0.7131100000000000  1.3927300000000000  7.8715400000000004
  4.9917699999999998  4.2649600000000003  2.0584400000000000
  4.9917699999999998  1.4216500000000001  0.4117500000000000
  3.5655500000000000  4.2649600000000003  4.5289200000000003
  3.5655500000000000  1.4216500000000001  2.8819300000000001
  4.9823300000000001  4.2402600000000001  6.9585400000000002
  4.9945399999999998  1.4048400000000001  5.3570500000000001
  3.5655500000000000  4.2294600000000004  9.3938799999999993
  3.5655500000000000  1.3876500000000001  8.0910600000000006
  3.5655500000000000  4.2207600000000003 10.4175599999999999
