Ga Mn Ga Mn Ga Mn  H 
 1.0000000000000000
     5.6758715983361574    0.0000000000000000    0.0000000000000000
    -2.8379357991680787    4.9154496521488618    0.0000000000000000
     0.0000000000000000    0.0000000000000000   24.6343282567049329
 Ga  Mn  Ga  Mn  Ga  Mn  H  
   3   1   3   1   3   1   1
Cartesian
  0.0000000000000000  0.0000000000000000  9.9999992923310419
 -1.4189678995840393  2.4577246260744450  9.9999992923310419
  1.4189678995840393  2.4577246260744450  9.9999992923310419
  2.8379358991680714  0.0000000000000000  9.9999992923310419
  2.8379358991680714  1.6384830840496301 12.3171642283524623
  1.4189678995840393  4.0962076101240816 12.3171642283524623
 -1.4189678995840393  4.0962076101240816 12.3171642283524623
  0.0000000000000000  1.6384830840496301 12.3171642283524623
 -0.0000207999985280  3.1317505783757174 15.1883513251674476
  1.4321501986511689  0.6975678506352851 14.7576876556441814
  4.2437151996854281  0.6975369506374718 14.7577189556419679
  2.8379440991674918  3.1965892737872839 14.4569448769268156
 -0.0000026999998089  2.9594772905669644 16.7797811125468961
