Nb  N Nb  N  H 
 1.0000000000000000
     4.9976799999999999    0.0000000000000000    0.0000000000000000
     0.0000000000000000    9.2379899999999999    0.0000000000000000
     0.0000000000000000    0.0000000000000000   32.0013000000000005
 Nb  N   Nb  N   H  
  12   6  12   6   1
Cartesian
  1.2428730392000000  4.6189950000000000  3.9995224739999999
  1.2428730392000000  0.0000000000000000  1.3325341320000001
  1.2428730392000000  3.0802230057000002  1.3341341970000000
  1.2428730392000000  7.6992180056999997  4.0008025260000002
  1.2428730392000000  6.1577669943000002  1.3341341970000000
  1.2428730392000000  1.5387719943000000  4.0008025260000002
  3.7548069607999999  4.6189950000000000  0.4457781090000000
  3.7548069607999999  0.0000000000000000  3.1124464380000001
  3.7548069607999999  1.5387719943000000  0.4441780440000000
  3.7548069607999999  6.1577669943000002  3.1108463730000002
  3.7548069607999999  7.6992180056999997  0.4441780440000000
  3.7548069607999999  3.0802230057000002  3.1108463730000002
  2.4988400000000000  6.1586907932999999  4.8894786270000008
  2.4988400000000000  1.5396957933000002  2.2224902850000001
  2.4988400000000000  3.0792992067000000  4.8894786270000008
  2.4988400000000000  7.6982942067000000  2.2224902850000001
  0.0000000000000000  4.6189950000000000  2.2224902850000001
  0.0000000000000000  0.0000000000000000  4.8894786270000008
  1.3472561496376865  4.6261038085158654  9.3534643121892032
  1.2782129439374781  0.0022363802791218  6.5938123186904587
  1.2297152202596247  3.0952123786283732  6.6475208472266365
  1.2660559453988616  7.7210720415090925  9.2519923770002865
  1.2312878594224512  6.1478215684276760  6.6492928325409215
  1.2561134888121321  1.5304918654006401  9.2448856947868574
  3.7589104816952448  4.6210726473853780  5.7902696622001812
  3.7864015574480852  0.0037950083079023  8.4655883088235750
  3.7548563130956625  1.5435931087878239  5.7678889505808915
  3.6825750498574235  6.1415253898501829  8.4464799868594547
  3.7559772982483390  7.6964732913933505  5.7705614581500226
  3.6836534881759877  3.1015359914641198  8.4416307963008954
  2.3021210393978739  6.2077932002584966 10.0619014850320792
  2.5095311751168681  1.5438187553141285  7.5217979502498746
  2.3012232156853063  3.0437842835253432 10.0503231092163769
  2.5117693094590652  7.6999060182583374  7.5224939227693985
 -0.0143174526409075  4.6246625938469990  7.6067790347924857
  0.0603269026507081  0.0016060819420321  9.9588218561805135
  2.4354561720296726  0.0154546469225985  9.8676790869954623
