Ta  N  H 
 1.0000000000000000
     5.3011100000000004    0.0000000000000000    0.0000000000000000
     0.0000000000000000    9.8774999999999995    0.0000000000000000
     0.0000000000000000    0.0000000000000000   32.1362999999999985
 Ta  N   H  
  24  12   1
Cartesian
  1.3276100000000000  3.7175900000000000  2.2996699999999999
  3.9711099999999999  3.7175900000000000  3.8258299999999998
  3.9781599999999999  3.7175900000000000  0.7609900000000001
  0.4394100000000000  1.2211600000000000  0.7609900000000001
  0.4464600000000000  1.2211600000000000  3.8258299999999998
  3.0899600000000000  1.2211600000000000  2.2996699999999999
  3.9380099999999998  3.7166800000000002  6.9066099999999997
  1.2638400000000001  3.8578100000000002  8.2397600000000004
  1.3080799999999999  3.7044000000000001  5.3421900000000004
  3.1015999999999999  1.2382700000000000  5.3296299999999999
  3.0712999999999999  1.1032700000000000  8.1986000000000008
  0.4527000000000000  1.2327100000000000  6.9130599999999998
  1.3276100000000000  8.6563400000000001  2.2996699999999999
  3.9711099999999999  8.6563400000000001  3.8258299999999998
  3.9781599999999999  8.6563400000000001  0.7609900000000001
  0.4394100000000000  6.1599100000000000  0.7609900000000001
  0.4464600000000000  6.1599100000000000  3.8258299999999998
  3.0899600000000000  6.1599100000000000  2.2996699999999999
  3.9649700000000001  8.6448699999999992  6.9130300000000000
  1.3465000000000000  8.7745300000000004  8.1985799999999998
  1.3159400000000001  8.6392199999999999  5.3298300000000003
  3.1097399999999999  6.1731600000000002  5.3422299999999998
  3.1537899999999999  6.0201500000000001  8.2397600000000004
  0.4796600000000000  6.1609299999999996  6.9066299999999998
  4.8593700000000002  2.4693700000000001  2.2955000000000001
  2.2088100000000002  2.4693700000000001  0.7651700000000000
  2.2088100000000002  0.0000000000000000  3.8258299999999998
  2.1847500000000002  2.4828100000000002  6.8780700000000001
  4.8551700000000002  2.4693900000000002  5.3450100000000003
  4.8594900000000001  0.0001900000000000  8.5233399999999993
  4.8593700000000002  7.4081299999999999  2.2955000000000001
  2.2088100000000002  7.4081299999999999  0.7651700000000000
  2.2088100000000002  4.9387499999999998  3.8258299999999998
  2.2330299999999998  7.3947599999999998  6.8780200000000002
  4.8636299999999997  7.4082800000000004  5.3451000000000004
  4.8593900000000003  4.9389399999999997  8.4124800000000004
  4.8594200000000001  0.0001900000000000  9.5642999999999994
