Ta  N  H 
 1.0000000000000000
     5.3011100000000004    0.0000000000000000    0.0000000000000000
     0.0000000000000000    9.8774999999999995    0.0000000000000000
     0.0000000000000000    0.0000000000000000   32.1362999999999985
 Ta  N   H  
  24  12   1
Cartesian
  1.3276100000000000  3.7175900000000000  2.2996699999999999
  3.9711099999999999  3.7175900000000000  3.8258299999999998
  3.9781599999999999  3.7175900000000000  0.7609900000000001
  0.4394100000000000  1.2211600000000000  0.7609900000000001
  0.4464600000000000  1.2211600000000000  3.8258299999999998
  3.0899600000000000  1.2211600000000000  2.2996699999999999
  3.9529200000000002  3.7054800000000001  6.8799400000000004
  1.2562700000000000  3.7857500000000002  8.2772400000000008
  1.3175399999999999  3.7080799999999998  5.3508800000000001
  3.0911700000000000  1.2262800000000000  5.3498000000000001
  3.1272500000000001  1.1277600000000001  8.2741500000000006
  0.4407900000000000  1.2149799999999999  6.8765799999999997
  1.3276100000000000  8.6563400000000001  2.2996699999999999
  3.9711099999999999  8.6563400000000001  3.8258299999999998
  3.9781599999999999  8.6563400000000001  0.7609900000000001
  0.4394100000000000  6.1599100000000000  0.7609900000000001
  0.4464600000000000  6.1599100000000000  3.8258299999999998
  3.0899600000000000  6.1599100000000000  2.2996699999999999
  3.9425699999999999  8.6223700000000001  6.9141300000000001
  1.2504700000000000  8.8181700000000003  8.2195000000000000
  1.3162900000000000  8.6297700000000006  5.3314100000000000
  3.0913400000000002  6.1823100000000002  5.3320299999999996
  3.1370800000000001  5.9764299999999997  8.2151800000000001
  0.4517700000000000  6.1794799999999999  6.9134900000000004
  4.8593700000000002  2.4693700000000001  2.2955000000000001
  2.2088100000000002  2.4693700000000001  0.7651700000000000
  2.2088100000000002  0.0000000000000000  3.8258299999999998
  2.1960000000000002  2.4615000000000000  6.8917500000000000
  4.8553800000000003  2.4670000000000001  5.3326000000000002
  4.8310399999999998  0.0106100000000000  8.3929100000000005
  4.8593700000000002  7.4081299999999999  2.2955000000000001
  2.2088100000000002  7.4081299999999999  0.7651700000000000
  2.2088100000000002  4.9387499999999998  3.8258299999999998
  2.1964700000000001  7.4020400000000004  6.9138299999999999
  4.8550599999999999  7.4055799999999996  5.3379000000000003
  4.8630800000000001  4.9143400000000002  8.3930100000000003
  2.1454599999999999  2.4222399999999999  9.4303600000000003
