Nb  N Nb  N Nb  N Nb  N  H 
 1.0000000000000000
     5.3335600000000003    0.0000000000000000    0.0000000000000000
     0.0000000000000000    9.9953599999999998    0.0000000000000000
     0.0000000000000000    0.0000000000000000   32.3329999999999984
 Nb  N   Nb  N   Nb  N   Nb  N   H  
   6   3   6   3   6   3   6   3   1
Cartesian
  1.3338700204000000  3.7548069607999999  2.3105161799999996
  3.9991566236000002  3.7548069607999999  3.8492436500000000
  4.0006500204000002  3.7548069607999999  0.7688787399999999
  0.4439655344000000  1.2428730392000000  0.7688787399999999
  0.4454589312000000  1.2428730392000000  3.8492436500000000
  3.1107455343999999  1.2428730392000000  2.3105161799999996
  4.8891144452000006  2.4988400000000000  2.3095461899999998
  2.2223344452000000  2.4988400000000000  0.7698487300000000
  2.2223344452000000  0.0000000000000000  3.8492436500000000
  3.9735130374544387  3.7292659931711558  6.9198860412837693
  1.2733947653006781  3.9282100870988672  8.2711792642786737
  1.3270469082799219  3.7341446431447793  5.3734448987347792
  3.1122670986300225  1.2592279905854240  5.3706620084211139
  3.1276913461000597  1.0425750747674349  8.3301804032384847
  0.4662834010965766  1.2460019224505938  6.9066476216068864
  2.2303561979503121  2.4782708261046738  6.9765999526810658
  4.8890632365735369  2.4949263164736926  5.3601028534947197
  4.8890905603729928  0.0001295117302219  8.3814063733687334
  1.3338700204000000  8.7524869607999989  2.3105161799999996
  3.9991566236000002  8.7524869607999989  3.8492436500000000
  4.0006500204000002  8.7524869607999989  0.7688787399999999
  0.4439655344000000  6.2405530391999999  0.7688787399999999
  0.4454589312000000  6.2405530391999999  3.8492436500000000
  3.1107455343999999  6.2405530391999999  2.3105161799999996
  4.8891144452000006  7.4965200000000003  2.3095461899999998
  2.2223344452000000  7.4965200000000003  0.7698487300000000
  2.2223344452000000  4.9976799999999999  3.8492436500000000
  3.9784202218763376  8.7496193788548702  6.9066116711721151
  1.3170685422316120  8.9532436793871888  8.3301134513105470
  1.3322405180624599  8.7362446670536933  5.3706483575547503
  3.1174896591250487  6.2611991396982196  5.3734641657307085
  3.1709888504165900  6.0675854024629494  8.2713721701842111
  0.4708886946225316  6.2664308536088518  6.9199343339122628
  2.2142590693638851  7.5172638300272716  6.9766362460711431
  4.8890232930406974  7.5004716821256316  5.3600642117734862
  4.8889509065164303  4.9978249867505991  8.3875269937832524
  2.2222576466764661  0.0002442609359811  9.7345168718766661
