Nb  N Nb  N  H 
 1.0000000000000000
     4.9976799999999999    0.0000000000000000    0.0000000000000000
     0.0000000000000000    9.2379899999999999    0.0000000000000000
     0.0000000000000000    0.0000000000000000   32.0013000000000005
 Nb  N   Nb  N   H  
  12   6  12   6   1
Cartesian
  1.2428730392000000  4.6189950000000000  3.9995224739999999
  1.2428730392000000  0.0000000000000000  1.3325341320000001
  1.2428730392000000  3.0802230057000002  1.3341341970000000
  1.2428730392000000  7.6992180056999997  4.0008025260000002
  1.2428730392000000  6.1577669943000002  1.3341341970000000
  1.2428730392000000  1.5387719943000000  4.0008025260000002
  3.7548069607999999  4.6189950000000000  0.4457781090000000
  3.7548069607999999  0.0000000000000000  3.1124464380000001
  3.7548069607999999  1.5387719943000000  0.4441780440000000
  3.7548069607999999  6.1577669943000002  3.1108463730000002
  3.7548069607999999  7.6992180056999997  0.4441780440000000
  3.7548069607999999  3.0802230057000002  3.1108463730000002
  2.4988400000000000  6.1586907932999999  4.8894786270000008
  2.4988400000000000  1.5396957933000002  2.2224902850000001
  2.4988400000000000  3.0792992067000000  4.8894786270000008
  2.4988400000000000  7.6982942067000000  2.2224902850000001
  0.0000000000000000  4.6189950000000000  2.2224902850000001
  0.0000000000000000  0.0000000000000000  4.8894786270000008
  1.3390566237146744  4.6062917350745538  9.3199668117045871
  1.2374040369176009 -0.0126845904803660  6.6136132147789306
  1.2027120081444858  3.0817381359933225  6.6345681626637640
  1.2652859189964576  7.6907783532044220  9.2535259269548558
  1.2333380710623780  6.1478918030107144  6.6377603653688961
  1.2037306901973843  1.5538388035172419  9.2437588688677952
  3.7592150380507992  4.6185432601120135  5.7798682771888048
  3.7726045663290755 -0.0069376002429306  8.4820938694489687
  3.7473206141434225  1.5413359025848266  5.7845027870024985
  3.7263961977546987  6.1801428699928076  8.4626054616927782
  3.7486548117637764  7.6989729109020431  5.7742578651755219
  3.6197546438793151  3.1638486174424370  8.3968074876448053
  2.3352666639804953  6.1697931592985240 10.0255070049527646
  2.4696820466310809  1.5271873911557710  7.5381720051007264
  2.1943810051261652  2.9978039995049413 10.1091466905022536
  2.5136476122744575  7.7065276605125694  7.5265671138819776
 -0.0158162465935968  4.6307129333218766  7.5860197041417941
  0.1374100779730786 -0.1054397508531715  9.9970714383963273
  4.2697203890905184  1.7464469245843595  9.3818184867032706
