Nb  N  H 
 1.0000000000000000
     4.9976799999999999    0.0000000000000000    0.0000000000000000
     0.0000000000000000    9.2379899999999999    0.0000000000000000
     0.0000000000000000    0.0000000000000000   32.0013000000000005
 Nb  N   H  
  24  12   1
Cartesian
  1.2428699999999999  4.6189900000000002  3.9995200000000000
  1.2428699999999999  0.0000000000000000  1.3325300000000000
  1.2428699999999999  3.0802200000000002  1.3341300000000000
  1.2428699999999999  7.6992200000000004  4.0007999999999999
  1.2428699999999999  6.1577700000000002  1.3341300000000000
  1.2428699999999999  1.5387700000000000  4.0007999999999999
  3.7548100000000000  4.6189900000000002  0.4457800000000000
  3.7548100000000000  0.0000000000000000  3.1124499999999999
  3.7548100000000000  1.5387700000000000  0.4441800000000000
  3.7548100000000000  6.1577700000000002  3.1108500000000001
  3.7548100000000000  7.6992200000000004  0.4441800000000000
  3.7548100000000000  3.0802200000000002  3.1108500000000001
  1.3333999999999999  4.5863600000000000  9.3274299999999997
  1.2567500000000000  9.2276600000000002  6.6115899999999996
  1.2180899999999999  3.0795499999999998  6.6285499999999997
  1.2785000000000000  7.6765600000000003  9.2543500000000005
  1.2355300000000000  6.1442899999999998  6.6364099999999997
  1.2625800000000000  1.5625800000000001  9.2413000000000007
  3.7565400000000002  4.6144600000000002  5.8049400000000002
  3.7973400000000002  9.2163400000000006  8.4926300000000001
  3.7524899999999999  1.5398799999999999  5.7749400000000000
  3.7551800000000002  6.1946500000000002  8.4493399999999994
  3.7541099999999998  7.6906299999999996  5.7710800000000004
  3.7410299999999999  3.0422500000000001  8.4711400000000001
  2.4988400000000000  6.1586900000000000  4.8894799999999998
  2.4988400000000000  1.5397000000000001  2.2224900000000001
  2.4988400000000000  3.0792999999999999  4.8894799999999998
  2.4988400000000000  7.6982900000000001  2.2224900000000001
  0.0000000000000000  4.6189900000000002  2.2224900000000001
  0.0000000000000000  0.0000000000000000  4.8894799999999998
  2.3563700000000001  6.1462599999999998 10.0059799999999992
  2.5097900000000002  1.5320300000000000  7.5292100000000000
  2.3891399999999998  2.9985100000000000 10.0265500000000003
  2.5103399999999998  7.6966099999999997  7.5269100000000000
  4.9831099999999999  4.6187500000000004  7.5855699999999997
  0.1520300000000000  9.2311800000000002  9.9627499999999998
  4.9720300000000002  3.2757600000000000  9.9482400000000002
