Nb  N Nb  N  H 
 1.0000000000000000
     4.9976799999999999    0.0000000000000000    0.0000000000000000
     0.0000000000000000    9.2379899999999999    0.0000000000000000
     0.0000000000000000    0.0000000000000000   32.0013000000000005
 Nb  N   Nb  N   H  
  12   6  12   6   1
Cartesian
  1.2428730392000000  4.6189950000000000  3.9995224739999999
  1.2428730392000000  0.0000000000000000  1.3325341320000001
  1.2428730392000000  3.0802230057000002  1.3341341970000000
  1.2428730392000000  7.6992180056999997  4.0008025260000002
  1.2428730392000000  6.1577669943000002  1.3341341970000000
  1.2428730392000000  1.5387719943000000  4.0008025260000002
  3.7548069607999999  4.6189950000000000  0.4457781090000000
  3.7548069607999999  0.0000000000000000  3.1124464380000001
  3.7548069607999999  1.5387719943000000  0.4441780440000000
  3.7548069607999999  6.1577669943000002  3.1108463730000002
  3.7548069607999999  7.6992180056999997  0.4441780440000000
  3.7548069607999999  3.0802230057000002  3.1108463730000002
  2.4988400000000000  6.1586907932999999  4.8894786270000008
  2.4988400000000000  1.5396957933000002  2.2224902850000001
  2.4988400000000000  3.0792992067000000  4.8894786270000008
  2.4988400000000000  7.6982942067000000  2.2224902850000001
  0.0000000000000000  4.6189950000000000  2.2224902850000001
  0.0000000000000000  0.0000000000000000  4.8894786270000008
  1.2372171095153111  4.6189950000000000  9.3524631872070838
  1.2506938528862814  0.0000000000000001  6.6173534266161074
  1.2299463110634148  3.0856743950080436  6.6338725957640596
  1.2459289040120607  7.6902474848292472  9.2344304941605753
  1.2299463110634101  6.1523156049919585  6.6338725957640596
  1.2459289040120607  1.5477425151707644  9.2344304941605753
  3.7532525865379109  4.6189950000000000  5.7885489607619922
  3.7700247404936214  0.0000000000000000  8.4948192079750626
  3.7588821151414740  1.5440920246180723  5.7872353491989026
  3.7246238815695514  6.1430241482406451  8.4917560875592990
  3.7588821151414740  7.6938979753819208  5.7872353491989026
  3.7246238815695460  3.0949658517593672  8.4917560875592990
  2.3012067895026647  6.1754441084231315 10.0125214839775865
  2.5163091951467642  1.5421037178881873  7.5271845402790847
  2.3012067895026647  3.0625458915768720 10.0125214839775865
  2.5163091951467642  7.6958862821118164  7.5271845402790847
 -0.0076713819849474  4.6189950000000000  7.5172727870154992
  0.1370378310992138  0.0000000000000000  9.9703896871802016
  4.3761255731903619  4.6189949999999955  9.8558449497086897
