In Cd In Cd In Cd In Cd In  H 
 1.0000000000000000
     6.8244125170574765    0.0000000000000000    0.0000000000000000
     3.2538287697366224    5.8158005884338175    0.0000000000000000
     0.0000000000000000    0.0000000000000000   25.5235381937783039
 In  Cd  In  Cd  In  Cd  In  Cd  In  H  
   2   3   1   1   1   1   1   1   1   1
Cartesian
  3.0954506832378770  3.9953462778620317  9.9999994450565506
  1.4685362983695653  1.0874459836451231  9.9999994450565506
  4.8807425568983041  1.0874459836451231  9.9999994450565506
  6.5076569417666157  3.9953462778620317  9.9999994450565506
  3.2538284658441872  1.9976731360231157 12.7617690968891520
  6.6660347243729250  1.9976731360231157 12.7617690968891520
  4.8807428507124975  4.9055734302400245 12.7617690968891520
  8.2929491092412349  4.9055734302400245 12.7617690968891520
  0.0090400455746590 -0.0189454531282720 15.4732028346788901
  3.3756243497566958  0.1205596095366371 15.6062433076195077
  1.5295766297556725  2.7984331088003862 15.5113664967865237
  4.9671088128241836  3.1294489372040624 15.5701841122830249
  5.2395243424696849  0.3098504609275962 16.5157423294025207
