Cd  H 
 1.0000000000000000
     6.2542083686335408    0.0000000000000000    0.0000000000000000
     3.1271041843167704    5.4163008024458623    0.0000000000000000
     0.0000000000000000    0.0000000000000000   25.1065375851654764
 Cd  H  
  12   1
Cartesian
  1.5635520670000000  0.9027172070000000 10.0000000000000000
  4.6906562020000004  0.9027172070000000 10.0000000000000000
  3.1271041350000002  3.6108688280000001 10.0000000000000000
  6.2542082700000003  3.6108688280000001 10.0000000000000000
  6.2542082700000003  1.8054344140000000 12.5532698340000000
  3.1271041350000002  1.8054344140000000 12.5532698340000000
  7.8177603370000002  4.5135860350000003 12.5532698340000000
  4.6906562020000004  4.5135860350000003 12.5532698340000000
 -0.0457892750000000 -0.0264307810000000 15.4380447370000002
  3.1728574329999999 -0.0263905470000000 15.4380590009999992
  1.5635692969999999  2.7609564230000001 15.4380632870000003
  4.6906013550000001  2.7081193770000000 15.3001943140000005
  1.5634215490000001  0.9026479300000000 16.3630556960000000
