Nb  N  H 
 1.0000000000000000
     5.3445200000000002    0.0000000000000000    0.0000000000000000
    -1.7272608330000001   10.5485613300000001    0.0000000000000000
     0.0000000000000000    0.0000000000000000   29.2037000000000013
 Nb  N   H  
  16  20   1
Cartesian
  2.0842100000000001  1.8268000000000000  3.4878000000000000
  2.1512600000000002  0.7511600000000000  0.4947100000000000
  3.1566100000000001  3.8205800000000001  1.2528400000000000
  4.9508500000000000  1.2774799999999999  1.9105099999999999
  4.0446000000000000  0.2660600000000000  6.8633499999999996
  2.9835600000000002  4.5580600000000002  4.1303599999999996
  4.8539399999999997  2.4580299999999999  4.9524100000000004
  0.3574100000000000  5.1543999999999999  5.5556200000000002
  1.2205800000000000  7.1010799999999996  3.4878000000000000
  1.2876200000000000  6.0254399999999997  0.4947100000000000
  2.2929800000000000  9.0948600000000006  1.2528400000000000
  4.0872200000000003  6.5517599999999998  1.9105099999999999
  3.0899299999999998  5.4679799999999998  6.8334900000000003
  2.1171000000000002  9.8370200000000008  4.1329900000000004
  3.9774699999999998  7.7132600000000000  4.9960100000000001
 -0.5551100000000000 10.4002400000000002  5.4412099999999999
 -0.4501700000000000  4.9230099999999997  0.8737700000000000
  3.9448400000000001  2.0364000000000000  0.1626600000000000
  3.9723400000000000  2.9347699999999999  3.0398100000000001
  3.0627599999999999  0.1695700000000000  2.3584900000000002
  1.3629800000000001  2.5352899999999998  1.5848800000000001
  1.2728400000000000  3.4809399999999999  4.5622699999999998
  0.3029900000000000  0.6261900000000000  3.8126600000000002
  0.2464300000000000  1.3472900000000001  6.6833499999999999
  3.9321999999999999  3.9056000000000002  6.0871599999999999
  3.0204100000000000  1.0406899999999999  5.3284300000000000
 -1.3138000000000001 10.1972900000000006  0.8737700000000000
  3.0812100000000000  7.3106799999999996  0.1626600000000000
  3.1087099999999999  8.2090499999999995  3.0398100000000001
  2.1991299999999998  5.4438500000000003  2.3584900000000002
  0.4993500000000000  7.8095699999999999  1.5848800000000001
  0.4147100000000000  8.7279800000000005  4.5866499999999997
 -0.5785600000000000  5.9054000000000002  3.8321499999999999
 -0.6882200000000001  6.6305699999999996  6.6933299999999996
  3.0563099999999999  9.1764200000000002  6.1322799999999997
  2.1827000000000001  6.3335699999999999  5.2788199999999996
  1.2853399999999999  4.8520700000000003  7.4167699999999996
