Co Pt Co Pt Co Pt Co  H 
 1.0000000000000000
     5.1165956379143847    0.0000000000000000    0.0000000000000000
     2.5582978189571923    4.4311016864246664    0.0000000000000000
     0.0000000000000000    0.0000000000000000   24.1776812890204233
 Co  Pt  Co  Pt  Co  Pt  Co  H  
   1   1   3   1   3   1   2   1
Cartesian
  0.0000000000000000  0.0000000000000000  9.9999991830101624
  1.2791489094785962  2.2155508432123332  9.9999991830101624
  2.5582978189571923  0.0000000000000000  9.9999991830101624
  3.8374467284357885  2.2155508432123332  9.9999991830101624
  5.1165956404726822  2.9540677924268115 12.0888406445102117
  3.8374467309940861  0.7385169492144783 12.0888406445102117
  2.5582978215154899  2.9540677924268115 12.0888406445102117
  1.2791489120368940  0.7385169492144783 12.0888406445102117
  2.5379457385937880  1.5222267621331238 14.1729321587442190
  3.8371866595544066  3.6947220170732118 14.3017930830613320
  5.1366876980040654  1.5220929783110071 14.1730343578030293
  6.3956298512268637  3.6523810768809524 14.1534265967651720
  1.2788412562577818  0.8212571119778014 15.2285968168884285
