Sc  N  H 
 1.0000000000000000
     6.3605200000000002    0.0000000000000000    0.0000000000000000
     0.0000000000000000    6.3605200000000002    0.0000000000000000
     0.0000000000000000    0.0000000000000000   26.9853999999999985
 Sc  N   H  
  16  16   1
Cartesian
  1.5901300000000000  1.5901300000000000  1.1244799999999999
  0.0000000000000000  0.0000000000000000  3.3731700000000000
  1.6011000000000000  1.5791599999999999  5.6052299999999997
  0.0112400000000000  0.0013900000000000  7.8258099999999997
  1.5901300000000000  4.7703899999999999  1.1244799999999999
  0.0000000000000000  3.1802600000000001  3.3731700000000000
  1.5968400000000000  4.7734300000000003  5.6248899999999997
 -0.0116900000000000  3.1919499999999998  7.7929800000000000
  4.7703899999999999  1.5901300000000000  1.1244799999999999
  3.1802600000000001  0.0000000000000000  3.3731700000000000
  4.7673500000000004  1.5834200000000000  5.6248899999999997
  3.1995800000000001 -0.0193200000000000  7.8896199999999999
  4.7703899999999999  4.7703899999999999  1.1244799999999999
  3.1802600000000001  3.1802600000000001  3.3731700000000000
  4.7669400000000000  4.7738399999999999  5.6224800000000004
  3.1788699999999999  3.1690200000000002  7.8258099999999997
  1.5901300000000000  1.5901300000000000  3.3731700000000000
  0.0000000000000000  0.0000000000000000  1.1244799999999999
  1.5457399999999999  1.6345200000000000  7.7703199999999999
  0.0050300000000000 -0.0041800000000000  5.6276999999999999
  1.5901300000000000  4.7703899999999999  3.3731700000000000
  0.0000000000000000  3.1802600000000001  1.1244799999999999
  1.5860399999999999  4.7628500000000003  7.8011900000000001
 -0.0039400000000000  3.1842000000000001  5.6146200000000004
  4.7703899999999999  1.5901300000000000  3.3731700000000000
  3.1802600000000001  0.0000000000000000  1.1244799999999999
  4.7779299999999996  1.5942200000000000  7.8011900000000001
  3.1783100000000002  0.0019500000000000  5.6114400000000000
  4.7703899999999999  4.7703899999999999  3.3731700000000000
  3.1802600000000001  3.1802600000000001  1.1244799999999999
  4.7668299999999997  4.7739500000000001  7.8240999999999996
  3.1844399999999999  3.1752300000000000  5.6276999999999999
  2.4069699999999998  0.7732900000000000  9.5754900000000003
