Sc  N  H 
 1.0000000000000000
     6.3605200000000002    0.0000000000000000    0.0000000000000000
     3.1802600000000001    5.5083719010000003    0.0000000000000000
     0.0000000000000000    0.0000000000000000   31.1600999999999999
 Sc  N   H  
  16  16   1
Cartesian
  1.9876600000000000  0.6885500000000000  1.9475100000000001
  3.5777800000000002  1.6066000000000000  4.5440800000000001
  1.9840599999999999  2.5225900000000001  7.1062599999999998
  2.0059600000000000  0.6779800000000000  9.6812199999999997
  3.5777899999999998  3.4427300000000001  1.9475100000000001
  5.1679100000000000  4.3607899999999997  4.5440800000000001
  3.5777899999999998  5.2830000000000004  7.1062599999999998
  3.5777899999999998  3.4427300000000001  9.6461400000000008
  5.1679199999999996  0.6885500000000000  1.9475100000000001
  6.7580400000000003  1.6066000000000000  4.5440800000000001
  5.1715099999999996  2.5225900000000001  7.1062599999999998
  5.1496199999999996  0.6779800000000000  9.6812199999999997
  6.7580499999999999  3.4427300000000001  1.9475100000000001
  8.3481699999999996  4.3607899999999997  4.5440800000000001
  6.7580499999999999  5.2788500000000003  7.1056499999999998
  6.7580499999999999  3.4638599999999999  9.6812199999999997
  3.5777800000000002  1.6066000000000000  0.6490600000000000
  1.9876799999999999  2.5246800000000000  3.2459500000000001
  1.9855799999999999  0.6897400000000000  5.9086600000000002
  3.5777899999999998  1.6110000000000000  8.5505999999999993
  5.1679100000000000  4.3607899999999997  0.6490600000000000
  3.5778099999999999  5.2788700000000004  3.2459500000000001
  3.5777899999999998  3.4427300000000001  5.9149799999999999
  5.1641199999999996  4.3586000000000000  8.5505999999999993
  6.7580400000000003  1.6066000000000000  0.6490600000000000
  5.1679399999999998  2.5246800000000000  3.2459500000000001
  5.1699999999999999  0.6897400000000000  5.9086600000000002
  6.7580499999999999  1.6066100000000001  8.5874699999999997
  8.3481699999999996  4.3607899999999997  0.6490600000000000
  6.7580700000000000  5.2788700000000004  3.2459500000000001
  6.7580499999999999  3.4403299999999999  5.9086600000000002
  8.3519799999999993  4.3586000000000000  8.5505999999999993
  6.7580499999999999  5.2788599999999999 10.7055000000000007
