Nb  N  H 
 1.0000000000000000
     5.3445200000000002    0.0000000000000000    0.0000000000000000
    -1.7272608330000001   10.5485613300000001    0.0000000000000000
     0.0000000000000000    0.0000000000000000   29.2037000000000013
 Nb  N   H  
  16  20   1
Cartesian
  2.0842100000000001  1.8268000000000000  3.4878000000000000
  2.1512600000000002  0.7511600000000000  0.4947100000000000
  3.1566100000000001  3.8205800000000001  1.2528400000000000
  4.9508500000000000  1.2774799999999999  1.9105099999999999
  4.0595600000000003  0.2559800000000000  6.8754999999999997
  2.9674299999999998  4.5484099999999996  4.1332899999999997
  4.8338000000000001  2.4350600000000000  4.9508700000000001
  0.3309500000000000  5.1280799999999997  5.4371900000000002
  1.2205800000000000  7.1010799999999996  3.4878000000000000
  1.2876200000000000  6.0254399999999997  0.4947100000000000
  2.2929800000000000  9.0948600000000006  1.2528400000000000
  4.0872200000000003  6.5517599999999998  1.9105099999999999
  3.2054200000000002  5.5396000000000001  6.9317399999999996
  2.1234799999999998  9.8343500000000006  4.1464299999999996
  3.9699200000000001  7.7191400000000003  4.9695900000000002
 -0.5460199999999999 10.3952299999999997  5.4440200000000001
 -0.4501700000000000  4.9230099999999997  0.8737700000000000
  3.9448400000000001  2.0364000000000000  0.1626600000000000
  3.9723400000000000  2.9347699999999999  3.0398100000000001
  3.0627599999999999  0.1695700000000000  2.3584900000000002
  1.3629800000000001  2.5352899999999998  1.5848800000000001
  1.2750900000000001  3.4509200000000000  4.5780700000000003
  0.3119700000000000  0.6163700000000000  3.8126099999999998
  0.2519300000000000  1.3457900000000000  6.6915300000000002
  3.9403100000000002  3.9379800000000000  6.0972499999999998
  3.0252800000000000  1.0331999999999999  5.3423600000000002
 -1.3138000000000001 10.1972900000000006  0.8737700000000000
  3.0812100000000000  7.3106799999999996  0.1626600000000000
  3.1087099999999999  8.2090499999999995  3.0398100000000001
  2.1991299999999998  5.4438500000000003  2.3584900000000002
  0.4993500000000000  7.8095699999999999  1.5848800000000001
  0.4213200000000000  8.7258399999999998  4.5809899999999999
 -0.5616400000000000  5.8941900000000000  3.8205399999999998
 -0.5932900000000000  6.6090600000000004  6.6797199999999997
  3.0732200000000001  9.1683599999999998  6.1325300000000000
  2.1893899999999999  6.2923900000000001  5.3503100000000003
  2.5623800000000001  5.3683199999999998  8.6467500000000008
