Ni Ir Ni Ir Ni Ir Ni  H 
 1.0000000000000000
     5.2204136305675064    0.0000000000000000    0.0000000000000000
     2.4768208247230667    4.5954406747949061    0.0000000000000000
     0.0000000000000000    0.0000000000000000   24.2936052808168483
 Ni  Ir  Ni  Ir  Ni  Ir  Ni  H  
   1   2   2   2   2   2   1   1
Cartesian
  0.0000000000000000  0.0000000000000000  9.9999994805571824
  1.2384104123615334  2.2977203373974531  9.9999994805571824
  2.6102068152837532  0.0000000000000000  9.9999994805571824
  3.8486172276452866  2.2977203373974531  9.9999994805571824
  5.2204135337984034  3.1167168977135389 12.1468026404084242
  3.9820031214368701  0.8189965603160858 12.1468026404084242
  2.6102067185146502  3.1167168977135389 12.1468026404084242
  1.3717963061531171  0.8189965603160858 12.1468026404084242
  2.6783478851440536  1.6125753384565420 14.2824625421598039
  3.9245533564481248  3.9014825259415518 14.2977438029279647
  5.3077381035013245  1.6105503988821599 14.2368107765114615
  6.5389203494410930  3.8905220414877930 14.2825212840973723
  2.7989922969037053  0.1127118035960510 15.2196048126380887
