 W  N  H 
 1.0000000000000000
     7.7826000000000004    0.0000000000000000    0.0000000000000000
     0.0000000000000000    5.0438000000000001    0.0000000000000000
     0.0000000000000000    0.0000000000000000   26.2083000000000013
 W   N   H  
  12  24   1
Cartesian
  5.8369499999999999  3.3625500000000001  2.1839400000000002
  5.8369499999999999  0.8406500000000000  0.7280700000000000
  1.9456500000000001  1.6812499999999999  2.1839400000000002
  1.9456500000000001  4.2031499999999999  0.7280700000000000
  5.8373600000000003  3.3762599999999998  5.0763600000000002
  5.8369499999999999  0.8406500000000000  3.6400700000000001
  1.9471799999999999  1.6828799999999999  5.0956200000000003
  1.9456500000000001  4.2031499999999999  3.6400700000000001
  5.8528700000000002  3.4945200000000001  7.9633200000000004
  5.8363300000000002  0.8675600000000000  6.5694600000000003
  1.9499599999999999  1.5631699999999999  7.8732699999999998
  1.9488200000000000  4.1577299999999999  6.5929300000000000
  4.5906399999999996  2.5219000000000000  0.7280700000000000
  4.5906399999999996  0.0000000000000000  2.1839400000000002
  3.1919599999999999  2.5219000000000000  0.7280700000000000
  3.1919599999999999  0.0000000000000000  2.1839400000000002
  0.6993400000000000  2.5219000000000000  0.7280700000000000
  0.6993400000000000  0.0000000000000000  2.1839400000000002
  7.0832600000000001  2.5219000000000000  0.7280700000000000
  7.0832600000000001  0.0000000000000000  2.1839400000000002
  4.5906399999999996  2.5219000000000000  3.6400700000000001
  4.5821800000000001  0.0092300000000000  5.1047000000000002
  3.1919599999999999  2.5219000000000000  3.6400700000000001
  3.1865199999999998 -0.0150800000000000  5.1098299999999997
  0.6993400000000000  2.5219000000000000  3.6400700000000001
  0.7061100000000000 -0.0146700000000000  5.1110899999999999
  7.0832600000000001  2.5219000000000000  3.6400700000000001
  7.0915299999999997  0.0076200000000000  5.1035399999999997
  4.6111300000000002  2.5431400000000002  6.5566899999999997
  4.5627300000000002 -0.0513800000000000  7.9738600000000002
  3.2269800000000002  2.5312899999999998  6.5398899999999998
  3.2394300000000000  0.0765900000000000  7.9890299999999996
  0.6706900000000000  2.5301399999999998  6.5386100000000003
  0.6594700000000000  0.0778100000000000  7.9832799999999997
  7.0717200000000000  2.5357900000000000  6.5552900000000003
  7.1292700000000000 -0.0593200000000000  7.9413400000000003
  6.2537399999999996  2.8605900000000002  9.5665800000000001
