Cd Ga Cd Ga Cd Ga  H 
 1.0000000000000000
     6.4126785461946136    0.0000000000000000    0.0000000000000000
    -3.2063387730973418    5.5535426069930018    0.0000000000000000
     0.0000000000000000    0.0000000000000000   25.2359282141315724
 Cd  Ga  Cd  Ga  Cd  Ga  H  
   3   1   3   1   3   1   1
Cartesian
  0.0000000000000000  0.0000000000000000  9.9999992103904880
 -1.6031693865486709  2.7767713034965009  9.9999992103904880
  1.6031698865486359  2.7767713034965009  9.9999992103904880
  3.2063392730973068  0.0000000000000000  9.9999992103904880
  3.2063394429703012  1.8511808671464864 12.6179641070657862
  1.6031700564216300  4.6279521706429874 12.6179641070657862
 -1.6031692166756768  4.6279521706429874 12.6179641070657862
  0.0000001698729941  1.8511808671464864 12.6179641070657862
  0.0763353179614863  3.7186165814162870 15.3938153426151878
  1.7248409075865325  1.0730620779176345 15.3599653069566600
  4.9656835771210117  0.7387427282241937 15.3629961924070333
  3.3004414919867817  3.6950105488188942 15.1818832603950629
 -1.7880344127427121  3.5022349337789436 16.3021708692121621
