Cd Sn Cd Sn Cd Sn  H 
 1.0000000000000000
     6.5830965341346612    0.0000000000000000    0.0000000000000000
    -3.2915477670673656    5.7011285965487977    0.0000000000000000
     0.0000000000000000    0.0000000000000000   25.3750742042846404
 Cd  Sn  Cd  Sn  Cd  Sn  H  
   3   1   3   1   3   1   1
Cartesian
  0.0000000000000000  0.0000000000000000  9.9999992923310419
 -1.6457739835336758  2.8505641982744061  9.9999992923310419
  1.6457739835336758  2.8505641982744061  9.9999992923310419
  3.2915480670673447  0.0000000000000000  9.9999992923310419
  3.2915480670673447  1.9003761655162685 12.6875370021423279
  1.6457739835336758  4.7509403637906749 12.6875370021423279
 -1.6457739835336758  4.7509403637906749 12.6875370021423279
  0.0000000000000000  1.9003761655162685 12.6875370021423279
  0.0000332999976435  3.8011961310011304 15.3681112124463990
  1.6487054833262227  0.9483284328897359 15.3778943117540781
  4.9343877508086713  0.9483184328904435 15.3778922117542276
  3.2915558670667928  3.8011558310039826 15.3691603123721556
 -0.0000066999995259  3.8018702309534267 17.1316036876495019
