Ga Pd Ga Pd Ga Pd Ga  H 
 1.0000000000000000
     5.7891805903176312    0.0000000000000000    0.0000000000000000
     2.8945907951587806    5.0135776452046477    0.0000000000000000
     0.0000000000000000    0.0000000000000000   24.7268452501577940
 Ga  Pd  Ga  Pd  Ga  Pd  Ga  H  
   1   1   3   1   3   1   2   1
Cartesian
  0.0000000000000000  0.0000000000000000  9.9999993777021920
  1.4472953975793903  2.5067888226023238  9.9999993777021920
  2.8945902951588156  0.0000000000000000  9.9999993777021920
  4.3418856927382059  2.5067888226023238  9.9999993777021920
  5.7891809265455318  3.3423850984742911 12.3634226250788970
  4.3418855289661415  0.8355962758719672 12.3634226250788970
  2.8945906313867162  3.3423850984742911 12.3634226250788970
  1.4472952338073257  0.8355962758719672 12.3634226250788970
  2.8682593248794688  1.6866688743325189 14.8667772656886257
  4.3418490198533437  4.1769703212375928 14.5475735244389792
  5.8138519826882913  1.6872127572626261 14.8671453742338642
  7.2363976041685163  4.1499764120098108 14.8662390364480661
  4.3425362267467795  0.8323020244629431 15.8070447834569610
