Cd Pb Cd Pb Cd Pb  H 
 1.0000000000000000
     6.6999995258617986    0.0000000000000000    0.0000000000000000
    -3.3499997629308993    5.8023695893842868    0.0000000000000000
     0.0000000000000000    0.0000000000000000   25.4705251975298701
 Cd  Pb  Cd  Pb  Cd  Pb  H  
   3   1   3   1   3   1   1
Cartesian
  0.0000000000000000  0.0000000000000000  9.9999994027025298
 -1.6749998814654496  2.9011847946921434  9.9999994027025298
  1.6749998814654496  2.9011847946921434  9.9999994027025298
  3.3499997629308993  0.0000000000000000  9.9999994027025298
  3.3499997662808991  1.9341231945273059 12.7352625987649350
  1.6749998848154495  4.8353079892194488 12.7352625987649350
 -1.6749998781154498  4.8353079892194488 12.7352625987649350
  0.0000000033499998  1.9341231945273059 12.7352625987649350
 -0.0333860272873743  4.1794688816450503 15.4061455529286295
  1.4978178714040711  1.0090342532848930 15.5323522090465929
  5.1337001184539535  0.7824984240922617 15.6242655538028021
  3.3408365990293474  3.7193222083436241 15.5825766716857448
  4.5622461172939817  2.2260524774979751 16.6721288186499770
