Ga Au Ga Au Ga Au Ga  H 
 1.0000000000000000
     6.0044885750809529    0.0000000000000000    0.0000000000000000
     3.0022437875405119    5.2000396320093119    0.0000000000000000
     0.0000000000000000    0.0000000000000000   24.9026432377171147
 Ga  Au  Ga  Au  Ga  Au  Ga  H  
   1   1   3   1   3   1   2   1
Cartesian
  0.0000000000000000  0.0000000000000000  9.9999994260159077
  1.5011218937702560  2.6000198160046559  9.9999994260159077
  3.0022442875404765  0.0000000000000000  9.9999994260159077
  4.5033661813107324  2.6000198160046559  9.9999994260159077
  6.0044882447498873  3.4666930897395543 12.4513216188585574
  4.5033663509796309  0.8666732737348984 12.4513216188585574
  3.0022439572094108  3.4666930897395543 12.4513216188585574
  1.5011220634391549  0.8666732737348984 12.4513216188585574
  3.0815163621569774  1.6877598800318243 15.0057794534129467
  4.5033856103673395  4.3325884635457026 14.7865779705411473
  5.9231781713666614  1.6882601394445422 15.0061435549597277
  7.5055362367521976  4.4277212541985698 15.0059065316013900
  1.5015037914663554  2.5977968302622099 15.6573532538181155
