Co Ni Co Ni Co Ni Co  H 
 1.0000000000000000
     4.9481000622790399    0.0000000000000000    0.0000000000000000
    -2.4740500311395199    4.3838929526776722    0.0000000000000000
     0.0000000000000000    0.0000000000000000   24.0848325202426672
 Co  Ni  Co  Ni  Co  Ni  Co  H  
   1   2   2   2   2   2   1   1
Cartesian
  0.0000000000000000  0.0000000000000000 10.0000000000000000
 -1.2370250089999999  2.1919453139999998 10.0000000000000000
  1.2370250089999999  2.1919453139999998 10.0000000000000000
  2.4740500170000002  0.0000000000000000 10.0000000000000000
  2.4740500170000002  1.3962308839999999 12.0424159240000002
  1.2370250089999999  3.5881761980000002 12.0424159240000002
 -1.2370250089999999  3.5881761980000002 12.0424159240000002
  0.0000000000000000  1.3962308839999999 12.0424159240000002
 -0.0057191320000000  2.8072171730000002 14.0574474170000006
  1.2368040440000001  0.6112849460000001 14.0718945150000003
  3.7109483960000000  0.6279955070000000 14.0388882499999994
  2.4794517940000000  2.8071820500000002 14.0575465929999996
  1.2367301049999999  2.0344460390000001 15.0251990020000008
