Zr  N  H 
 1.0000000000000000
     6.6186199999999999    0.0000000000000000    0.0000000000000000
     0.0000000000000000    7.6751500000000004    0.0000000000000000
     0.0000000000000000    0.0000000000000000   38.3757000000000019
 Zr  N   H  
  32  16   1
Cartesian
  0.0000000000000000  3.8375800000000000  0.7817100000000000
  0.0000000000000000  0.0000000000000000  4.6192799999999998
  0.0000000000000000  3.8375800000000000  5.3296200000000002
  0.0000000000000000  0.0000000000000000  1.4920500000000001
  1.6546500000000000  1.5638099999999999  6.8934300000000004
  1.6546500000000000  5.4013900000000001  3.0558600000000000
  1.6546500000000000  6.1113400000000002  6.8934300000000004
  1.6546500000000000  2.2737599999999998  3.0558600000000000
 -0.0036000000000000  3.8100700000000001  8.4342799999999993
 -0.0118600000000000 -0.0490600000000000 12.2653199999999991
 -0.0161000000000000  3.9977499999999999 12.9743600000000008
 -0.0079300000000000  0.0284000000000000  9.1415799999999994
  1.6331500000000001  1.6593300000000000 14.3646499999999993
  1.6405099999999999  5.4133100000000001 10.6174400000000002
  1.6345200000000000  6.1958599999999997 14.5800900000000002
  1.6402500000000000  2.2662900000000001 10.7512299999999996
  3.3093100000000000  3.8375800000000000  0.7817100000000000
  3.3093100000000000  0.0000000000000000  4.6192799999999998
  3.3093100000000000  3.8375800000000000  5.3296200000000002
  3.3093100000000000  0.0000000000000000  1.4920500000000001
  4.9639600000000002  1.5638099999999999  6.8934300000000004
  4.9639600000000002  5.4013900000000001  3.0558600000000000
  4.9639600000000002  6.1113400000000002  6.8934300000000004
  4.9639600000000002  2.2737599999999998  3.0558600000000000
  3.3037299999999998  3.8100299999999998  8.4343199999999996
  3.2862600000000000 -0.0489200000000000 12.2656700000000001
  3.2842300000000000  3.9977999999999998 12.9743899999999996
  3.2977300000000001  0.0284100000000000  9.1417900000000003
  4.9422899999999998  1.6521399999999999 14.3882499999999993
  4.9498100000000003  5.4143600000000003 10.6163100000000004
  4.9423700000000004  6.1798099999999998 14.6721000000000004
  4.9497299999999997  2.2605900000000001 10.7366100000000007
  0.0000000000000000  3.8375800000000000  3.0558600000000000
  0.0000000000000000  0.0000000000000000  6.8934300000000004
  1.6546500000000000  3.8375800000000000  6.8934300000000004
  1.6546500000000000  0.0000000000000000  3.0558600000000000
 -0.0148700000000000  3.8349500000000001 10.6844999999999999
 -0.0114600000000000  0.1687100000000000 14.6185899999999993
  1.6329400000000001  3.9882900000000001 14.3628199999999993
  1.6405600000000000 -0.0032500000000000 10.7146699999999999
  3.3093100000000000  3.8375800000000000  3.0558600000000000
  3.3093100000000000  0.0000000000000000  6.8934300000000004
  4.9639600000000002  3.8375800000000000  6.8934300000000004
  4.9639600000000002  0.0000000000000000  3.0558600000000000
  3.2953899999999998  3.8349400000000000 10.6846700000000006
  3.2772800000000002  0.1704500000000000 14.6185500000000008
  4.9426300000000003  3.9042200000000000 14.3190299999999997
  4.9498300000000004 -0.0103800000000000 10.7151300000000003
  4.9202300000000001  6.0977499999999996 16.5986300000000000
