Ti  N  H 
 1.0000000000000000
     5.6618000000000004    0.0000000000000000    0.0000000000000000
     3.2879366220000001    4.6092789040000000    0.0000000000000000
     0.0000000000000000    0.0000000000000000   34.2956999999999965
 Ti  N   H  
  18  12   1
Cartesian
  2.5683600000000002  1.9259400000000000  1.9586300000000001
  7.3898400000000004  4.4994899999999998  0.5737700000000000
  6.6230399999999996  4.0141700000000000  3.4762100000000000
  3.7921600000000000  3.5884600000000000  4.1021099999999997
  5.3992399999999998  1.4098400000000000  2.7172499999999999
  4.5588899999999999  3.9833400000000001  1.3327300000000000
  5.8563099999999997  3.6193000000000000  6.2455900000000000
  1.7280199999999999  1.5835200000000000  4.8607300000000002
  0.9684700000000001  1.1080500000000000  7.7330500000000004
  3.7974199999999998  0.6807600000000000  8.3602500000000006
  3.0280800000000001  3.1041400000000001  6.9846800000000000
  4.5589000000000004  1.0674200000000000  5.6196900000000003
  5.8631900000000003  0.7018000000000000 10.4769699999999997
  5.0214200000000000  3.2833999999999999  9.1266900000000000
  4.2108900000000000  2.9901800000000001 11.8657599999999999
  7.2336900000000002  2.4588199999999998 12.5602800000000006
  3.0264799999999998  0.2120700000000000 11.1715599999999995
  2.2110699999999999  2.7882199999999999  9.8611299999999993
  1.6144700000000001  0.4928200000000000  3.1061600000000000
  8.3436800000000009  3.9584899999999998  2.3283399999999999
  4.4453600000000000  1.9507900000000000  0.9626800000000000
  2.2248399999999999  0.8071800000000000  0.1848500000000000
  4.9043799999999997  2.1894200000000001  7.3757799999999998
  2.6862800000000000  1.0424300000000000  6.5976699999999999
  7.7333100000000004  3.6441400000000002  5.2496400000000003
  5.5127899999999999  2.5005299999999999  4.4718200000000001
  8.1590600000000002  4.0193800000000000 11.7282499999999992
  5.9747500000000002  2.7183400000000000 10.9289400000000008
  2.0773199999999998  0.7517300000000000  9.4791100000000004
  3.1459199999999998  4.2130799999999997  8.7096999999999998
  7.3286400000000000  2.6726399999999999 14.3128600000000006
