Ti  N  H 
 1.0000000000000000
     5.6618000000000004    0.0000000000000000    0.0000000000000000
     3.2879366220000001    4.6092789040000000    0.0000000000000000
     0.0000000000000000    0.0000000000000000   34.2956999999999965
 Ti  N   H  
  18  12   1
Cartesian
  2.5683600000000002  1.9259400000000000  1.9586300000000001
  7.3898400000000004  4.4994899999999998  0.5737700000000000
  6.6230399999999996  4.0141700000000000  3.4762100000000000
  3.7921600000000000  3.5884600000000000  4.1021099999999997
  5.3992399999999998  1.4098400000000000  2.7172499999999999
  4.5588899999999999  3.9833400000000001  1.3327300000000000
  5.8563099999999997  3.6193000000000000  6.2455900000000000
  1.7280199999999999  1.5835200000000000  4.8607300000000002
  0.9622500000000000  1.0830800000000000  7.7548599999999999
  3.7894399999999999  0.6604400000000000  8.3780999999999999
  3.0239900000000000  3.0899500000000000  6.9945500000000003
  4.5589000000000004  1.0674200000000000  5.6196900000000003
  5.8461499999999997  0.6265400000000000 10.5088600000000003
  5.0223100000000001  3.2473100000000001  9.1343599999999991
  4.1840099999999998  2.8477000000000001 11.8415900000000001
  7.1715700000000000  2.3033100000000002 12.4731500000000004
  3.0163600000000002  0.1738100000000000 11.2551100000000002
  2.2031200000000002  2.7285400000000002  9.8645600000000009
  1.6144700000000001  0.4928200000000000  3.1061600000000000
  8.3436800000000009  3.9584899999999998  2.3283399999999999
  4.4453600000000000  1.9507900000000000  0.9626800000000000
  2.2248399999999999  0.8071800000000000  0.1848500000000000
  4.9050099999999999  2.1722999999999999  7.3785699999999999
  2.6810200000000002  1.0340300000000000  6.6082900000000002
  7.7333100000000004  3.6441400000000002  5.2496400000000003
  5.5127899999999999  2.5005299999999999  4.4718200000000001
  8.1505799999999997  3.8974700000000002 11.7573799999999995
  5.9755700000000003  2.6873499999999999 10.9148700000000005
  2.0792899999999999  0.6972800000000000  9.5116099999999992
  3.1354600000000001  4.1840900000000003  8.7295200000000008
  3.2111200000000002  1.4728600000000001 12.8497400000000006
