Ti  N  H 
 1.0000000000000000
     5.6618000000000004    0.0000000000000000    0.0000000000000000
     3.2879366220000001    4.6092789040000000    0.0000000000000000
     0.0000000000000000    0.0000000000000000   34.2956999999999965
 Ti  N   H  
  18  12   1
Cartesian
  2.5683600000000002  1.9259400000000000  1.9586300000000001
  7.3898400000000004  4.4994899999999998  0.5737700000000000
  6.6230399999999996  4.0141700000000000  3.4762100000000000
  3.7921600000000000  3.5884600000000000  4.1021099999999997
  5.3992399999999998  1.4098400000000000  2.7172499999999999
  4.5588899999999999  3.9833400000000001  1.3327300000000000
  5.8563099999999997  3.6193000000000000  6.2455900000000000
  1.7280199999999999  1.5835200000000000  4.8607300000000002
  0.9545300000000000  1.0891299999999999  7.7387600000000001
  3.7803900000000001  0.6655300000000000  8.3593899999999994
  3.0258099999999999  3.0977600000000001  6.9856800000000003
  4.5589000000000004  1.0674200000000000  5.6196900000000003
  5.8391700000000002  0.6952600000000000 10.4668700000000001
  5.0099200000000002  3.2554099999999999  9.1435899999999997
  4.1899199999999999  3.0407999999999999 11.9907800000000009
  7.1577700000000002  2.5573600000000001 12.5904799999999994
  2.9693499999999999  0.2016700000000000 11.2271400000000003
  2.1589100000000001  2.7591299999999999  9.8385800000000003
  1.6144700000000001  0.4928200000000000  3.1061600000000000
  8.3436800000000009  3.9584899999999998  2.3283399999999999
  4.4453600000000000  1.9507900000000000  0.9626800000000000
  2.2248399999999999  0.8071800000000000  0.1848500000000000
  4.8981399999999997  2.1822699999999999  7.3786600000000000
  2.6779299999999999  1.0396700000000001  6.6011400000000000
  7.7333100000000004  3.6441400000000002  5.2496400000000003
  5.5127899999999999  2.5005299999999999  4.4718200000000001
  8.1208700000000000  3.9416899999999999 11.5645699999999998
  5.9236599999999999  2.7030099999999999 10.9691500000000008
  2.0643500000000001  0.7213900000000000  9.4990799999999993
  3.1295400000000000  4.1898600000000004  8.7174999999999994
  4.9406299999999996  0.2455800000000000 13.7071600000000000
