Ti  N  H 
 1.0000000000000000
     5.6618000000000004    0.0000000000000000    0.0000000000000000
     3.2879366220000001    4.6092789040000000    0.0000000000000000
     0.0000000000000000    0.0000000000000000   34.2956999999999965
 Ti  N   H  
  18  12   1
Cartesian
  2.5683600000000002  1.9259400000000000  1.9586300000000001
  7.3898400000000004  4.4994899999999998  0.5737700000000000
  6.6230399999999996  4.0141700000000000  3.4762100000000000
  3.7921600000000000  3.5884600000000000  4.1021099999999997
  5.3992399999999998  1.4098400000000000  2.7172499999999999
  4.5588899999999999  3.9833400000000001  1.3327300000000000
  5.8563099999999997  3.6193000000000000  6.2455900000000000
  1.7280199999999999  1.5835200000000000  4.8607300000000002
  0.9797700000000000  1.0984499999999999  7.7404400000000004
  3.8102299999999998  0.6706299999999999  8.3621300000000005
  3.0341600000000000  3.0993900000000001  6.9877300000000000
  4.5589000000000004  1.0674200000000000  5.6196900000000003
  5.8684399999999997  0.6722000000000000 10.4559899999999999
  5.0427400000000002  3.2590400000000002  9.1311699999999991
  4.2817200000000000  3.0364000000000000 11.8933999999999997
  7.2761800000000001  2.2800799999999999 12.4530100000000008
  3.0438000000000001  0.1955600000000000 11.2312200000000004
  2.2388400000000002  2.7498200000000002  9.8683499999999995
  1.6144700000000001  0.4928200000000000  3.1061600000000000
  8.3436800000000009  3.9584899999999998  2.3283399999999999
  4.4453600000000000  1.9507900000000000  0.9626800000000000
  2.2248399999999999  0.8071800000000000  0.1848500000000000
  4.9143499999999998  2.1813099999999999  7.3746600000000004
  2.6917000000000000  1.0398799999999999  6.6010799999999996
  7.7333100000000004  3.6441400000000002  5.2496400000000003
  5.5127899999999999  2.5005299999999999  4.4718200000000001
  8.1821000000000002  3.9353099999999999 11.7490400000000008
  6.0203600000000002  2.6933300000000000 10.9105200000000000
  2.1015100000000002  0.7183800000000000  9.4873300000000000
  3.1570399999999998  4.1936099999999996  8.7133900000000004
  1.9471300000000000  0.1659000000000000 12.7912800000000004
