 Y Hg  Y Hg  Y Hg  Y  H 
 1.0000000000000000
     6.8517035151261769    0.0000000000000000    0.0000000000000000
     3.4258517575630885    5.9337495800869320    0.0000000000000000
     0.0000000000000000    0.0000000000000000   25.5943911887642592
 Y   Hg  Y   Hg  Y   Hg  Y   H  
   1   1   3   1   3   1   2   1
Cartesian
  0.0000000000000000  0.0000000000000000  9.9999993749201899
  1.7129258787815442  2.9668747900434660  9.9999993749201899
  3.4258517575630885  0.0000000000000000  9.9999993749201899
  5.1387776363446331  2.9668747900434660  9.9999993749201899
  6.8517035185520285  3.9558330553692045 12.7971955943821296
  5.1387776397704847  0.9889582653257385 12.7971955943821296
  3.4258517609889401  3.9558330553692045 12.7971955943821296
  1.7129258822073958  0.9889582653257385 12.7971955943821296
  3.4392661939975904  1.9539470424152237 15.6220321182868993
  5.1392205578666648  4.9475959905064650 15.3904949666480775
  6.8196876594607483  1.9401372668062487 15.6076109841659800
  8.5669631594937119  4.9819621793944764 15.6175501564738788
  8.5545886883221431  6.9244042866163689 16.7308135470834110
