Ru Os Ru Os Ru Os Ru  H 
 1.0000000000000000
     5.4257326160377186    0.0000000000000000    0.0000000000000000
    -2.7128668080188238    4.7056206669978087    0.0000000000000000
     0.0000000000000000    0.0000000000000000   24.4332872709319808
 Ru  Os  Ru  Os  Ru  Os  Ru  H  
   1   2   2   2   2   2   1   1
Cartesian
  0.0000000000000000  0.0000000000000000  9.9999992023204349
 -1.3564334040094119  2.3528103334989043  9.9999992023204349
  1.3564329040094474  2.3528103334989043  9.9999992023204349
 -0.0000004999999645  4.7056206669978087  9.9999992023204349
  2.7128661445462674  1.5640115596678679 12.2166436354659904
  1.3564327405368553  3.9168218931667727 12.2166436354659904
 -1.3564335674820036  3.9168218931667727 12.2166436354659904
 -0.0000001634725912  1.5640115596678679 12.2166436354659904
 -0.0259604404475782  3.1147939397342270 14.3629552141719223
  1.3564400056399477  0.7504797189232651 14.3145995396668937
  4.0692684544046305  0.7873502802660798 14.3613759442158795
  2.7387482462596520  3.1148253309296967 14.3629120894198881
  1.3562236909080485  3.9827248352736597 15.4144490129960872
