Cr Cu Cr Cu Cr Cu  H 
 1.0000000000000000
     5.1062466386467502    0.0000000000000000    0.0000000000000000
    -2.5531238193233401    4.4221396870588796    0.0000000000000000
     0.0000000000000000    0.0000000000000000   24.1692312896184056
 Cr  Cu  Cr  Cu  Cr  Cu  H  
   3   1   3   1   3   1   1
Cartesian
  0.0000000000000000  0.0000000000000000  9.9999992923310419
 -1.2765617096616841  2.2110698435294398  9.9999992923310419
  1.2765617096616841  2.2110698435294398  9.9999992923310419
  2.5531235193233610  0.0000000000000000  9.9999992923310419
  2.5531235193233610  1.4740464956862980 12.0846158448091892
  1.2765617096616841  3.6851163392157380 12.0846158448091892
 -1.2765617096616841  3.6851163392157380 12.0846158448091892
  0.0000000000000000  1.4740464956862980 12.0846158448091892
 -0.0025182998217877  3.0502293841447199 14.0644350047035243
  1.3647806034187064  0.6871495513725558 14.0642704047151721
  3.7390414353996255  0.6886600512656624 14.0635222047681196
  2.5545814192201903  2.9492329912919217 14.3018034879056906
  2.5543345192376625  2.9488403913197048 15.8142055808776814
