Ag Au Ag Au Ag Au  H 
 1.0000000000000000
     5.9218835809266528    0.0000000000000000    0.0000000000000000
    -2.9609417904633264    5.1639936345601747    0.0000000000000000
     0.0000000000000000    0.0000000000000000   24.8517272413202832
 Ag  Au  Ag  Au  Ag  Au  H  
   2   2   2   2   2   2   1
Cartesian
  0.0000000000000000  0.0000000000000000  9.9999992923310419
  2.9609419904633119  0.0000000000000000  9.9999992923310419
  1.4804709952316559  2.5819970172800732  9.9999992923310419
 -1.4804709952316559  2.5819970172800732  9.9999992923310419
  2.9609419904633119  1.6977512798554035 12.4258636206601416
  0.0000000000000000  1.6977512798554035 12.4258636206601416
 -1.4804709952316559  4.2797482971354768 12.4258636206601416
  1.4804709952316559  4.2797482971354768 12.4258636206601416
 -0.0001258999910904  3.5224037507304029 14.8861249465550731
  2.9608336904709760  3.4907827529681232 14.9244988438394710
  4.4397230858145571  0.9316580340694484 14.8417377496962164
  1.4818579951335022  0.9317332340641267 14.8415948497063290
 -0.0000601999957398  3.2997540664866314 16.5344661299070737
