Ir Ru Ir Ru Ir Ru  H 
 1.0000000000000000
     5.4633856133731324    0.0000000000000000    0.0000000000000000
    -2.7316928066865662    4.7314306651713149    0.0000000000000000
     0.0000000000000000    0.0000000000000000   24.4608342689825697
 Ir  Ru  Ir  Ru  Ir  Ru  H  
   3   1   3   1   3   1   1
Cartesian
  0.0000000000000000  0.0000000000000000  9.9999992923310419
 -1.3658464033432831  2.3657154325856506  9.9999992923310419
  1.3658464033432831  2.3657154325856506  9.9999992923310419
  2.7316929066865594  0.0000000000000000  9.9999992923310419
  2.7316929066865594  1.5771435883904361 12.2304172344912772
  1.3658464033432831  3.9428590209760865 12.2304172344912772
 -1.3658464033432831  3.9428590209760865 12.2304172344912772
  0.0000000000000000  1.5771435883904361 12.2304172344912772
 -0.0000804999943033  3.1345267781792541 14.3825679821902384
  1.3487525045529654  0.7983485435033478 14.3825326821927355
  4.1146526088187869  0.7984648434951177 14.3822693822113692
  2.7315671066954614  3.1542143767860242 14.4822204751381403
  2.7317250066842873  3.1542725767819055 16.1004264606227174
