Ag Au Ag Au Ag Au  H 
 1.0000000000000000
     5.9218835809266528    0.0000000000000000    0.0000000000000000
    -2.9609417904633264    5.1639936345601747    0.0000000000000000
     0.0000000000000000    0.0000000000000000   24.8517272413202832
 Ag  Au  Ag  Au  Ag  Au  H  
   2   2   2   2   2   2   1
Cartesian
  0.0000000000000000  0.0000000000000000  9.9999992923310419
  2.9609419904633119  0.0000000000000000  9.9999992923310419
  1.4804709952316559  2.5819970172800732  9.9999992923310419
 -1.4804709952316559  2.5819970172800732  9.9999992923310419
  2.9609419904633119  1.6977512798554035 12.4258636206601416
  0.0000000000000000  1.6977512798554035 12.4258636206601416
 -1.4804709952316559  4.2797482971354768 12.4258636206601416
  1.4804709952316559  4.2797482971354768 12.4258636206601416
 -0.0040228997153119  3.2754845682041087 14.8928432460796394
  2.9649191901818575  3.2756289681938897 14.8927573460857179
  4.4413854856969142  0.6637629530275529 14.8920663461346177
  1.4805034952293561  0.7131596495319018 14.8432775495872491
  4.4414195856945007  1.0679425244250174 16.4580194353169738
