Zr Pd Zr Pd Zr Pd Zr  H 
 1.0000000000000000
     6.1807985626040418    0.0000000000000000    0.0000000000000000
     3.0903987813020564    5.3527286212039851    0.0000000000000000
     0.0000000000000000    0.0000000000000000   25.0465992275297964
 Zr  Pd  Zr  Pd  Zr  Pd  Zr  H  
   1   1   3   1   3   1   2   1
Cartesian
  0.0000000000000000  0.0000000000000000  9.9999993105620124
  1.5451993906510282  2.6763643106019925  9.9999993105620124
  3.0903992813020209  0.0000000000000000  9.9999993105620124
  4.6355986719530495  2.6763643106019925  9.9999993105620124
  6.1807982323611306  3.5684857492535662 12.5232996137648982
  4.6355988417101024  0.8921214386515737 12.5232996137648982
  3.0903989510591101  3.5684857492535662 12.5232996137648982
  1.5451995604080822  0.8921214386515737 12.5232996137648982
  3.5162750801230853  1.5486210786572687 15.0680858916491296
  4.9204910514709148  4.2969052986939209 14.9207881440151855
  6.5107511325178589  1.5937273344424010 15.0293576627333572
  8.0413048830701150  4.2694914703477416 15.0305985964920854
  2.0069766486508933  5.9759784491969166 16.2674990262066430
