Rh Re Rh Re Rh Re Rh  H 
 1.0000000000000000
     5.3987256179489194    0.0000000000000000    0.0000000000000000
    -2.6993628089744597    4.8001486603083565    0.0000000000000000
     0.0000000000000000    0.0000000000000000   24.4642022687442235
 Rh  Re  Rh  Re  Rh  Re  Rh  H  
   1   2   2   2   2   2   1   1
Cartesian
  0.0000000000000000  0.0000000000000000  9.9999994536162138
 -1.3496814044872298  2.4000743301541783  9.9999994536162138
  1.3496814044872298  2.4000743301541783  9.9999994536162138
  2.6993628089744597  0.0000000000000000  9.9999994536162138
  2.6993628116738222  1.5179862583409243 12.2321011343721118
  1.3496814071865924  3.9180605884951021 12.2321011343721118
 -1.3496814017878669  3.9180605884951021 12.2321011343721118
  0.0000000026993627  1.5179862583409243 12.2321011343721118
 -0.0000290073527451  3.1837694971452302 14.4080704858768485
  1.3926493272066494  0.6480073295470836 14.3932342193393747
  4.0058991477572947  0.6481030925128569 14.3931229316832532
  2.6992914648154178  3.1462112811695948 14.3785984369394892
  0.0000494550260233  1.4059298023593843 15.4484627961060283
