Ni Rh Ni Rh Ni Rh Ni  H 
 1.0000000000000000
     5.2003096319902040    0.0000000000000000    0.0000000000000000
     2.4543468263134813    4.5846916755555798    0.0000000000000000
     0.0000000000000000    0.0000000000000000   24.2795372818123951
 Ni  Rh  Ni  Rh  Ni  Rh  Ni  H  
   1   2   2   2   2   2   1   1
Cartesian
  0.0000000000000000  0.0000000000000000  9.9999991809238207
  1.2271734131567407  2.2923458377777899  9.9999991809238207
  2.6001548159951020  0.0000000000000000  9.9999991809238207
  3.8273282291518429  2.2923458377777899  9.9999991809238207
  5.2003092059374545  3.1146811691219871 12.1397686409061976
  3.9731357927807132  0.8223353313441973 12.1397686409061976
  2.6001543899423520  3.1146811691219871 12.1397686409061976
  1.3729809767856114  0.8223353313441973 12.1397686409061976
  2.7061382088787438  1.6332137199176151 14.2661401909052632
  3.9338259633694301  3.9135068709189200 14.3069261230490401
  5.3200116328766303  1.6289556600157926 14.2659715937983780
  6.5442748031697189  3.9075445206570851 14.2661251618716847
  2.8814696318367474  0.1685044236980922 15.1770890303685739
