Ga Os Ga Os Ga Os Ga  H 
 1.0000000000000000
     5.2849526260002815    0.0000000000000000    0.0000000000000000
     1.7703378747186753    4.9796206476076792    0.0000000000000000
     0.0000000000000000    0.0000000000000000   24.3177742791064802
 Ga  Os  Ga  Os  Ga  Os  Ga  H  
   1   2   2   2   2   2   1   1
Cartesian
  0.0000000000000000  0.0000000000000000  9.9999994460389043
  0.8851689373593377  2.4898103238038396  9.9999994460389043
  2.6424763130001407  0.0000000000000000  9.9999994460389043
  3.5276452503594786  2.4898103238038396  9.9999994460389043
  5.2849523500382567  3.7301168309357968 12.1588871395532401
  4.3997834126789188  1.2403065071319574 12.1588871395532401
  2.6424760370381155  3.7301168309357968 12.1588871395532401
  1.7573070996787779  1.2403065071319574 12.1588871395532401
  3.5276132051152640  2.4949579468928560 14.4870493764402077
  4.4159182717118179  4.9821950019308385 14.2792501286991307
  6.1699221524640775  2.4889959317450265 14.1574517110426346
  7.0598931340591928  4.9769253134008871 14.4866646449333345
  2.6456353530726404  0.0022499818341738 15.9189387506899749
