Os Tc Os Tc Os Tc  H 
 1.0000000000000000
     5.4651356132492905    0.0000000000000000    0.0000000000000000
    -2.7325678066246453    4.7329466650640333    0.0000000000000000
     0.0000000000000000    0.0000000000000000   24.4622632688814399
 Os  Tc  Os  Tc  Os  Tc  H  
   3   1   3   1   3   1   1
Cartesian
  0.0000000000000000  0.0000000000000000  9.9999992923310419
 -1.3662840033123154  2.3664733325320166  9.9999992923310419
  1.3662840033123154  2.3664733325320166  9.9999992923310419
  2.7325680066246307  0.0000000000000000  9.9999992923310419
  2.7325680066246307  1.5776488883546778 12.2311317344407140
  1.3662840033123154  3.9441221208867012 12.2311317344407140
 -1.3662840033123154  3.9441221208867012 12.2311317344407140
  0.0000000000000000  1.5776488883546778 12.2311317344407140
  0.0000121999991366  3.1611314762965224 14.4241204792496962
  1.3620140036144901  0.7946564437646263 14.3425172850245026
  4.1030944096367250  0.7946616437642583 14.3425307850235466
  2.7325595066252326  3.1644502760616615 14.3558313840823057
 -0.0000001999999858  3.1456439773925249 16.0877602615190654
