Hg Pd Hg Pd Hg Pd Hg  H 
 1.0000000000000000
     6.2572785571917890    0.0000000000000000    0.0000000000000000
     3.1286387785959300    5.4189616165168806    0.0000000000000000
     0.0000000000000000    0.0000000000000000   25.1090452231106873
 Hg  Pd  Hg  Pd  Hg  Pd  Hg  H  
   1   1   3   1   3   1   2   1
Cartesian
  0.0000000000000000  0.0000000000000000  9.9999994091540447
  1.5643193892979650  2.7094808082584403  9.9999994091540447
  3.1286392785958945  0.0000000000000000  9.9999994091540447
  4.6929586678938593  2.7094808082584403  9.9999994091540447
  6.2572782269871183  3.6126410794842410 12.5545226115553437
  4.6929588376891536  0.9031602712258006 12.5545226115553437
  3.1286389483912238  3.6126410794842410 12.5545226115553437
  1.5643195590932590  0.9031602712258006 12.5545226115553437
  3.0846937324895687  1.8297771735030504 15.4809099200033753
  4.6930395579982962  4.5159675827765904 14.7442031762070584
  6.3003218881080780  1.8333153381785912 15.4810832979606410
  7.8219183134612695  4.4665529605052772 15.4795879789904678
  4.6934586285042830  0.9023334298054677 16.3740712250210798
