Cd  V Cd  V Cd  V  H 
 1.0000000000000000
     6.0402445725506109    0.0000000000000000    0.0000000000000000
    -3.0201227862752704    5.2310056298179433    0.0000000000000000
     0.0000000000000000    0.0000000000000000   24.9318372356511482
 Cd  V   Cd  V   Cd  V   H  
   3   1   3   1   3   1   1
Cartesian
  0.0000000000000000  0.0000000000000000  9.9999992923310419
 -1.5100611931376493  2.6155026149089857  9.9999992923310419
  1.5100611931376493  2.6155026149089857  9.9999992923310419
  3.0201222862753054  0.0000000000000000  9.9999992923310419
  3.0201222862753054  1.7436683766059931 12.4659188178255604
  1.5100611931376493  4.3591709915149783 12.4659188178255604
 -1.5100611931376493  4.3591709915149783 12.4659188178255604
  0.0000000000000000  1.7436683766059931 12.4659188178255604
  0.0751852946793697  3.4705463544001907 15.0964949316678414
  1.5330815915085672  0.9455135330889376 15.0964798316689084
  4.5376669788833706  0.8762516379903872 15.0632650340194179
  3.0424168846975865  3.5002235523000271 14.7571757556804073
 -1.8676114678349245  4.1527828061204310 15.9438798717010339
