La  Y La  Y La  Y  H 
 1.0000000000000000
     7.4322354740437291    0.0000000000000000    0.0000000000000000
    -3.7161177370218645    6.4365045445085221    0.0000000000000000
     0.0000000000000000    0.0000000000000000   26.0683931552206083
 La  Y   La  Y   La  Y   H  
   3   1   3   1   3   1   1
Cartesian
  0.0000000000000000  0.0000000000000000  9.9999992923310419
 -1.8580587685109395  3.2182522722542610  9.9999992923310419
  1.8580587685109395  3.2182522722542610  9.9999992923310419
  3.7161176370218718  0.0000000000000000  9.9999992923310419
  3.7161176370218718  2.1455015481695048 13.0341965776103041
  1.8580587685109395  5.3637537204237731 13.0341965776103041
 -1.8580587685109395  5.3637537204237731 13.0341965776103041
  0.0000000000000000  2.1455015481695048 13.0341965776103041
 -0.0000299999978770  4.2701809978125249 16.0724670626013157
  1.8402099697740435  1.0829629233620701 16.0721682626224620
  5.5924350042407074  1.0831921233458506 16.0723286626111097
  3.7166448369845635  4.2910254963374239 15.9489672713410151
  3.7161005370230820  4.2909779963407857 18.0146035251623395
