Cd  V Cd  V Cd  V  H 
 1.0000000000000000
     6.0402445725506109    0.0000000000000000    0.0000000000000000
    -3.0201227862752704    5.2310056298179433    0.0000000000000000
     0.0000000000000000    0.0000000000000000   24.9318372356511482
 Cd  V   Cd  V   Cd  V   H  
   3   1   3   1   3   1   1
Cartesian
  0.0000000000000000  0.0000000000000000  9.9999992923310419
 -1.5100611931376493  2.6155026149089857  9.9999992923310419
  1.5100611931376493  2.6155026149089857  9.9999992923310419
  3.0201222862753054  0.0000000000000000  9.9999992923310419
  3.0201222862753054  1.7436683766059931 12.4659188178255604
  1.5100611931376493  4.3591709915149783 12.4659188178255604
 -1.5100611931376493  4.3591709915149783 12.4659188178255604
  0.0000000000000000  1.7436683766059931 12.4659188178255604
  0.0000390999972330  3.4872470532183337 15.2050883239830235
  1.5099962931422419  0.8718683383005797 15.2050586239851242
  4.5302860794056938  0.8719359382957960 15.2050925239827261
  3.0201264862750086  3.4873193532132176 14.6654988621680964
 -0.0000103999992640  1.7436914766043583 16.4571884353757767
