Pd Tl Pd Tl Pd Tl  H 
 1.0000000000000000
     5.8289795875011796    0.0000000000000000    0.0000000000000000
    -2.9144897937505898    5.0480446427655252    0.0000000000000000
     0.0000000000000000    0.0000000000000000   24.7593402478582263
 Pd  Tl  Pd  Tl  Pd  Tl  H  
   3   1   3   1   3   1   1
Cartesian
  0.0000000000000000  0.0000000000000000  9.9999992923310419
 -1.4572448968752949  2.5240221213827767  9.9999992923310419
  1.4572448968752949  2.5240221213827767  9.9999992923310419
  2.9144897937505898  0.0000000000000000  9.9999992923310419
  2.9144897937505898  1.6826814809218467 12.3796702239291054
  1.4572448968752949  4.2067036023046231 12.3796702239291054
 -1.4572448968752949  4.2067036023046231 12.3796702239291054
  0.0000000000000000  1.6826814809218467 12.3796702239291054
 -0.0007630999459978  3.4203989579489660 14.7301447575933082
  1.4657198962755453  0.8791237377871377 14.7269156578218201
  4.3622712912955803  0.8789889377966771 14.7267196578356909
  2.9143201937625918  3.4114092585851394 14.9813144398188065
 -0.0003258999769371  1.7353889771919002 15.4807656044741968
