 V Nb  V Nb  V Nb  V  H 
 1.0000000000000000
     5.5727426056342768    0.0000000000000000    0.0000000000000000
     2.7863718028171029    4.8261366584692658    0.0000000000000000
     0.0000000000000000    0.0000000000000000   24.5501242626637897
 V   Nb  V   Nb  V   Nb  V   H  
   1   1   3   1   3   1   2   1
Cartesian
  0.0000000000000000  0.0000000000000000  9.9999993662969242
  1.3931859014085515  2.4130683292346329  9.9999993662969242
  2.7863713028171384  0.0000000000000000  9.9999993662969242
  4.1795572042256897  2.4130683292346329  9.9999993662969242
  5.5727429417539582  3.2174244405882226 12.2750621313318948
  4.1795570403454061  0.8043561113535898 12.2750621313318948
  2.7863716389368194  3.2174244405882226 12.2750621313318948
  1.3931857375282681  0.8043561113535898 12.2750621313318948
  2.7288735418598176  1.6409519545540057 14.5102391932817891
  4.1780234067017723  4.0225965454757535 14.6011244652557739
  5.6272829763099113  1.6414957395019987 14.5112352409233729
  6.9647474628627677  3.9566153135335389 14.5100977845660353
  1.3925471843691195  2.4137241191621959 15.5781305394599627
