Pd  Y Pd  Y Pd  Y Pd  H 
 1.0000000000000000
     6.1191385669675276    0.0000000000000000    0.0000000000000000
     2.0349708559914195    5.7708535916145767    0.0000000000000000
     0.0000000000000000    0.0000000000000000   24.9947952311958055
 Pd  Y   Pd  Y   Pd  Y   Pd  H  
   1   2   2   2   2   2   1   1
Cartesian
  0.0000000000000000  0.0000000000000000  9.9999994590668138
  1.0174854279957097  2.8854267958072883  9.9999994590668138
  3.0595692834837638  0.0000000000000000  9.9999994590668138
  4.0770547114794731  2.8854267958072883  9.9999994590668138
  6.1191385228145814  4.3306571803591831 12.4973976155979027
  5.1016530948188716  1.4452303845518948 12.4973976155979027
  3.0595692393308171  4.3306571803591831 12.4973976155979027
  2.0420838113351074  1.4452303845518948 12.4973976155979027
  4.1772439412357159  2.9557110142863796 14.7494875786610056
  2.9907094084597818  0.0509921048801308 15.0597183280386950
  1.0425439100580325  2.8024475650546834 15.0598331041383950
 -0.1713248771036024 -0.1206808001228358 14.7570312578097322
  2.0241933003921333  1.4328411640393475 16.3856784429214599
