Pd  Y Pd  Y Pd  Y  H 
 1.0000000000000000
     6.1191385669675276    0.0000000000000000    0.0000000000000000
     2.0349708559914195    5.7708535916145767    0.0000000000000000
     0.0000000000000000    0.0000000000000000   24.9947952311958055
 Pd  Y   Pd  Y   Pd  Y   H  
   2   2   2   2   2   2   1
Cartesian
  0.0000000000000000  0.0000000000000000  9.9999992923310419
  4.0770549114794594  2.8854268958072811  9.9999992923310419
  3.0595693834837570  0.0000000000000000  9.9999992923310419
  1.0174855279957027  2.8854268958072811  9.9999992923310419
  6.1191388669675062  4.3306572935328056 12.4973974155979182
  2.0420839554880472  1.4452303977255239 12.4973974155979182
  3.0595693834837570  4.3306572935328056 12.4973974155979182
  5.1016533389718042  1.4452303977255239 12.4973974155979182
  4.0824146111001705  2.8892301955381336 14.8955471458882940
  0.0045612996772110  0.0032280997715574 14.7490940562523232
  1.0219902276769188  2.8885790955842094 15.0178703372318605
  3.0640516831665585  0.0032266997716565 15.0178204372353914
  4.0847589109342710  2.8908666954223232 16.5721484272404140
