 Y Ir  Y Ir  Y Ir  H 
 1.0000000000000000
     6.5506445364311885    0.0000000000000000    0.0000000000000000
    -3.2753227682155588    5.6730245985376309    0.0000000000000000
     0.0000000000000000    0.0000000000000000   25.3485772061597530
 Y   Ir  Y   Ir  Y   Ir  H  
   3   1   3   1   3   1   1
Cartesian
  0.0000000000000000  0.0000000000000000  9.9999992923310419
 -1.6376611841077935  2.8365122992688154  9.9999992923310419
  1.6376611841077935  2.8365122992688154  9.9999992923310419
  3.2753222682155942  0.0000000000000000  9.9999992923310419
  3.2753222682155942  1.8910081661792126 12.6742887030798688
  1.6376611841077935  4.7275205654480210 12.6742887030798688
 -1.6376611841077935  4.7275205654480210 12.6742887030798688
  0.0000000000000000  1.8910081661792126 12.6742887030798688
  0.0000667999952728  3.7294218360803746 15.4028003099915587
  1.5923263873159965  0.9728113311571570 15.4028902099851965
  4.9585545490984622  0.9726950311653872 15.4027838099927266
  3.2752592682200525  3.7813060324086911 14.9598236413396446
  3.2753411682142564  3.7816729323827269 16.6445640221157873
