Ag Cd Ag Cd Ag Cd  H 
 1.0000000000000000
     6.0203135739610669    0.0000000000000000    0.0000000000000000
     2.6138808150237556    5.4232656162122996    0.0000000000000000
     0.0000000000000000    0.0000000000000000   24.9833492320058035
 Ag  Cd  Ag  Cd  Ag  Cd  H  
   2   2   2   2   2   2   1
Cartesian
  0.0000000000000000  0.0000000000000000  9.9999992923310419
  4.3170971944924110  2.7116328081061498  9.9999992923310419
  3.0101569869805194  0.0000000000000000  9.9999992923310419
  1.3069402075118919  2.7116328081061498  9.9999992923310419
  6.0203139739610387  3.7814485323986071 12.4916748160028881
  1.7032167794686270  1.0698157242924569 12.4916748160028881
  3.0101569869805194  3.7814485323986071 12.4916748160028881
  4.7133737664491466  1.0698157242924569 12.4916748160028881
  3.3509980628602527  2.1120331505379593 14.9272224436467305
  7.6743522569098754  4.8130997593918465 14.9278351436033709
  6.3664693494646949  2.1080110508225909 15.2657264196918536
  4.6794025688531828  4.8300700581909117 15.0987413315088705
  6.4145334460633485  2.1382542486823737 17.0282298949649444
