Os Ir Os Ir Os Ir Os  H 
 1.0000000000000000
     5.4627406134187773    0.0000000000000000    0.0000000000000000
     2.7313708067093532    4.7308726652108035    0.0000000000000000
     0.0000000000000000    0.0000000000000000   24.4603082690197908
 Os  Ir  Os  Ir  Os  Ir  Os  H  
   1   1   3   1   3   1   2   1
Cartesian
  0.0000000000000000  0.0000000000000000  9.9999994215371117
  1.3656854033546766  2.3654363326054018  9.9999994215371117
  2.7313703067093886  0.0000000000000000  9.9999994215371117
  4.0970557100640654  2.3654363326054018  9.9999994215371117
  5.4627409494834573  3.1539151117174931 12.2301541345098954
  4.0970555461287805  0.7884787791120914 12.2301541345098954
  2.7313706427740687  3.1539151117174931 12.2301541345098954
  1.3656852394193921  0.7884787791120914 12.2301541345098954
  2.7194623441634529  1.5837820312786559 14.3764880674239350
  4.0971256550364084  3.9422847259428351 14.3602526111912976
  5.4746836537726082  1.5837985325625126 14.3765345420096473
  6.8284286648004748  3.9286247474388336 14.3765317535345041
  1.3656009139366867  2.3660012697647179 15.5120616701609606
