 W Tl  W Tl  W Tl  H 
 1.0000000000000000
     5.8372875869132486    0.0000000000000000    0.0000000000000000
    -2.9186437934566243    5.5165176096131452    0.0000000000000000
     0.0000000000000000    0.0000000000000000   24.9533802341266160
 W   Tl  W   Tl  W   Tl  H  
   2   2   2   2   2   2   1
Cartesian
  0.0000000000000000  0.0000000000000000  9.9999992923310419
  2.9186436934566315  0.0000000000000000  9.9999992923310419
  1.4593217967283192  2.7582589048065658  9.9999992923310419
 -1.4593217967283192  2.7582589048065658  9.9999992923310419
  2.9186436934566315  1.5441771907233661 12.4766902170633021
  0.0000000000000000  1.5441771907233661 12.4766902170633021
 -1.4593217967283192  4.3024360955299317 12.4766902170633021
  1.4593217967283192  4.3024360955299317 12.4766902170633021
 -0.0005993999575823  2.7607230046321893 14.8334397502834410
  2.9176366935278937  2.7204928074791552 14.6565471628015800
  4.3773318902297884  0.1041876926269599 15.4617976058165016
  1.4596763967032254  0.1039279926453381 15.4618886058100635
  0.0001044999926049  2.5707683180746934 16.5647236277658472
