Pd Cu Pd Cu Pd Cu Pd  H 
 1.0000000000000000
     5.5241716090714954    0.0000000000000000    0.0000000000000000
     2.7620858045357477    4.7840726614460047    0.0000000000000000
     0.0000000000000000    0.0000000000000000   24.5104652654703337
 Pd  Cu  Pd  Cu  Pd  Cu  Pd  H  
   1   1   3   1   3   1   2   1
Cartesian
  0.0000000000000000  0.0000000000000000  9.9999992327753660
  1.3810429022678739  2.3920363307230024  9.9999992327753660
  2.7620858045357477  0.0000000000000000  9.9999992327753660
  4.1431287068036218  2.3920363307230024  9.9999992327753660
  5.5241716118335811  3.1893817758920275 12.2552326327351668
  4.1431287095657074  0.7973454451690249 12.2552326327351668
  2.7620858072978334  3.1893817758920275 12.2552326327351668
  1.3810429050299597  0.7973454451690249 12.2552326327351668
  2.7864966879908488  1.5805203235926670 14.5548244844812515
  4.1427674867462763  3.9870658664284653 14.4376016401898273
  5.4996029994686113  1.5808933377380801 14.5546541857685856
  6.9047089943954223  4.0148148178370526 14.5546847012978411
  1.3807199536714361  2.3921474647309280 15.3857795769658843
