Pd Cu Pd Cu Pd Cu Pd  H 
 1.0000000000000000
     5.5241716090714954    0.0000000000000000    0.0000000000000000
     2.7620858045357477    4.7840726614460047    0.0000000000000000
     0.0000000000000000    0.0000000000000000   24.5104652654703337
 Pd  Cu  Pd  Cu  Pd  Cu  Pd  H  
   1   1   3   1   3   1   2   1
Cartesian
  0.0000000000000000  0.0000000000000000  9.9999992327753660
  1.3810429022678739  2.3920363307230024  9.9999992327753660
  2.7620858045357477  0.0000000000000000  9.9999992327753660
  4.1431287068036218  2.3920363307230024  9.9999992327753660
  5.5241716118335811  3.1893817758920275 12.2552326327351668
  4.1431287095657074  0.7973454451690249 12.2552326327351668
  2.7620858072978334  3.1893817758920275 12.2552326327351668
  1.3810429050299597  0.7973454451690249 12.2552326327351668
  2.7580016049295839  1.5966547856540823 14.5683211231587499
  4.1432598561617926  3.9866128434518626 14.4326816790075547
  5.5285298186378125  1.5963457919690247 14.5676781891443721
  6.9055619706852376  3.9813528608102016 14.5679045432910996
  4.1427185122028760  0.7981761898185398 15.4469916207524243
