Nb Sc Nb Sc Nb Sc Nb  H 
 1.0000000000000000
     6.0432485723380278    0.0000000000000000    0.0000000000000000
     3.0216237861690494    5.2336066296338792    0.0000000000000000
     0.0000000000000000    0.0000000000000000   24.9342902354775546
 Nb  Sc  Nb  Sc  Nb  Sc  Nb  H  
   1   1   3   1   3   1   2   1
Cartesian
  0.0000000000000000  0.0000000000000000  9.9999992297910776
  1.5108118930845247  2.6168033148169396  9.9999992297910776
  3.0216242861690139  0.0000000000000000  9.9999992297910776
  4.5324361792535388  2.6168033148169396  9.9999992297910776
  6.0432482420263423  3.4890710881671216 12.4671451177387773
  4.5324363489418182  0.8722677733501820 12.4671451177387773
  3.0216239558573283  3.4890710881671216 12.4671451177387773
  1.5108120627728034  0.8722677733501820 12.4671451177387773
  2.9757956913766495  1.7708396954897572 14.7847776458189344
  4.5321376211542930  4.3612455253766704 15.2080518839288246
  6.0882254589302445  1.7708771942812582 14.7849261295172880
  7.5535837815270490  4.3089234746788856 14.7849679692563019
  4.5319605518913830  0.8723079360474579 15.8213660814604271
