Rh Cu Rh Cu Rh Cu Rh  H 
 1.0000000000000000
     5.4011306177787262    0.0000000000000000    0.0000000000000000
     2.7005658088893272    4.6775166689866419    0.0000000000000000
     0.0000000000000000    0.0000000000000000   24.4100032725797220
 Rh  Cu  Rh  Cu  Rh  Cu  Rh  H  
   1   1   3   1   3   1   2   1
Cartesian
  0.0000000000000000  0.0000000000000000  9.9999991978814542
  1.3502829044446636  2.3387583344933209  9.9999991978814542
  2.7005653088893631  0.0000000000000000  9.9999991978814542
  4.0508482133340262  2.3387583344933209  9.9999991978814542
  5.4011309538126007  3.1183444475502666 12.2050016362898610
  4.0508480493679375  0.7795861130569458 12.2050016362898610
  2.7005656449232380  3.1183444475502666 12.2050016362898610
  1.3502827404785742  0.7795861130569458 12.2050016362898610
  2.7310139912811797  1.5183982150824851 14.4000379585621392
  4.0507328162578720  3.8618886341542531 14.4499927373394321
  5.3704481533958504  1.5183808895607431 14.4000953952998376
  6.7513966874796942  3.8600211964318767 14.3410545542344021
  1.3500970502258420  0.8358944142094739 15.3460929159470378
