Ag Cd Ag Cd Ag Cd Ag  H 
 1.0000000000000000
     6.0203135739610669    0.0000000000000000    0.0000000000000000
     2.6138808150237556    5.4232656162122996    0.0000000000000000
     0.0000000000000000    0.0000000000000000   24.9833492320058035
 Ag  Cd  Ag  Cd  Ag  Cd  Ag  H  
   1   2   2   2   2   2   1   1
Cartesian
  0.0000000000000000  0.0000000000000000  9.9999991544402071
  1.3069404075118778  2.7116328081061498  9.9999991544402071
  3.0101567869805335  0.0000000000000000  9.9999991544402071
  4.3170971944924110  2.7116328081061498  9.9999991544402071
  6.0203139957154121  3.7814485545308552 12.4916746160029017
  4.7133735882035346  1.0698157464247051 12.4916746160029017
  3.0101572087348787  3.7814485545308552 12.4916746160029017
  1.7032168012230009  1.0698157464247051 12.4916746160029017
  3.3576702835470638  2.1765888190617289 15.0836511044775676
  4.6296325509186929  4.7983470470221183 15.1879407980444778
  6.3970970603687345  2.1274095726473234 15.1206886199138246
  7.7350531248383732  4.7912968017210416 15.0838058263593631
  3.7039779852790558  0.4359864318544154 15.8428776742438089
