Ag Re Ag Re Ag Re  H 
 1.0000000000000000
     5.8116575887270043    0.0000000000000000    0.0000000000000000
    -2.9058287943635022    5.0330426438271703    0.0000000000000000
     0.0000000000000000    0.0000000000000000   24.7451972488590819
 Ag  Re  Ag  Re  Ag  Re  H  
   3   1   3   1   3   1   1
Cartesian
  0.0000000000000000  0.0000000000000000  9.9999992923310419
 -1.4529142971817581  2.5165214219135783  9.9999992923310419
  1.4529142971817581  2.5165214219135783  9.9999992923310419
  2.9058285943635163  0.0000000000000000  9.9999992923310419
  2.9058285943635163  1.6776808812757236 12.3725984244295546
  1.4529142971817581  4.1942023031893010 12.3725984244295546
 -1.4529142971817581  4.1942023031893010 12.3725984244295546
  0.0000000000000000  1.6776808812757236 12.3725984244295546
 -0.0000398999971764  3.3441814633426423 14.8204006512061763
  1.4432219978676522  0.8444145402434000 14.8204139512052375
  4.3684061908614327  0.8444013402443341 14.8204136512052589
  2.9057885943663466  3.3553441625526923 14.5886603676057192
  2.9058155943644364  3.3553681625509943 16.2556464496382809
