Hg Tc Hg Tc Hg Tc Hg  H 
 1.0000000000000000
     6.1068855678346354    0.0000000000000000    0.0000000000000000
     3.0534427839173177    5.2887186257337744    0.0000000000000000
     0.0000000000000000    0.0000000000000000   24.9862502318005077
 Hg  Tc  Hg  Tc  Hg  Tc  Hg  H  
   1   1   3   1   3   1   2   1
Cartesian
  0.0000000000000000  0.0000000000000000  9.9999994414649720
  1.5267213919586589  2.6443593128668872  9.9999994414649720
  3.0534427839173177  0.0000000000000000  9.9999994414649720
  4.5801641758759768  2.6443593128668872  9.9999994414649720
  6.1068855708880783  3.5258124189187559 12.4931251159002539
  4.5801641789294196  0.8814531060518686 12.4931251159002539
  3.0534427869707605  3.5258124189187559 12.4931251159002539
  1.5267213950121017  0.8814531060518686 12.4931251159002539
  3.0500864548764497  1.7632256031102638 15.2741340700712644
  4.5801846644770574  4.4069180138471653 14.6595550938159906
  6.1086487478357805  1.7659438299561763 15.2739958961074827
  7.6353930375618759  4.4039556385946135 15.2743180188454737
  4.5803908726285831  0.8808458236469501 16.5587896576004212
