Re Ru Re Ru Re Ru Re  H 
 1.0000000000000000
     5.5043256104759353    0.0000000000000000    0.0000000000000000
     2.7521628052379676    4.7668856626622755    0.0000000000000000
     0.0000000000000000    0.0000000000000000   24.4942612666170447
 Re  Ru  Re  Ru  Re  Ru  Re  H  
   1   1   3   1   3   1   2   1
Cartesian
  0.0000000000000000  0.0000000000000000  9.9999991812512299
  1.3760814026189838  2.3834428313311378  9.9999991812512299
  2.7521628052379676  0.0000000000000000  9.9999991812512299
  4.1282442078569517  2.3834428313311378  9.9999991812512299
  5.5043256132280973  3.1779237766971455 12.2471306333085224
  4.1282442106091137  0.7944809453660078 12.2471306333085224
  2.7521628079901301  3.1779237766971455 12.2471306333085224
  1.3760814053711465  0.7944809453660078 12.2471306333085224
  2.7396038056655692  1.5961564177898733 14.3641232424513934
  4.1495449048997903  3.9601446687227533 14.4429521192210366
  5.5159372385502126  1.6240250709732671 14.4024965645082084
  6.8559935401066348  3.9447421604144992 14.4024905144256756
  2.7484179951042988  4.7690821148697173 15.4461101559340470
