Ga  Y Ga  Y Ga  Y  H 
 1.0000000000000000
     6.0809795696679227    0.0000000000000000    0.0000000000000000
    -3.0404897848339614    5.2662826273214991    0.0000000000000000
     0.0000000000000000    0.0000000000000000   24.9650982332973683
 Ga  Y   Ga  Y   Ga  Y   H  
   3   1   3   1   3   1   1
Cartesian
  0.0000000000000000  0.0000000000000000  9.9999992923310419
 -1.5202449924169734  2.6331415136607355  9.9999992923310419
  1.5202449924169734  2.6331415136607355  9.9999992923310419
  3.0404899848339468  0.0000000000000000  9.9999992923310419
  3.0404899848339468  1.7554276757738239 12.4825489166486978
  1.5202449924169734  4.3885692894345532 12.4825489166486978
 -1.5202449924169734  4.3885692894345532 12.4825489166486978
  0.0000000000000000  1.7554276757738239 12.4825489166486978
 -0.0002435999827612  3.0909886812603107 15.1542686275793752
  1.6680194819594309  0.6836749516184426 14.9101360448558822
  4.4130169877044647  0.6839292516004465 14.9100741448602623
  3.0402568848504425  3.4095431587171974 14.9580826414628483
  0.0004249999699241  3.3041833661731834 16.7564284141994939
