Pt Ta Pt Ta Pt Ta Pt  H 
 1.0000000000000000
     5.6682485988756142    0.0000000000000000    0.0000000000000000
     2.8341247994377712    4.9088476526160649    0.0000000000000000
     0.0000000000000000    0.0000000000000000   24.6281042571453881
 Pt  Ta  Pt  Ta  Pt  Ta  Pt  H  
   1   1   3   1   3   1   2   1
Cartesian
  0.0000000000000000  0.0000000000000000  9.9999992699274731
  1.4170623997188856  2.4544238263080325  9.9999992699274731
  2.8341242994378071  0.0000000000000000  9.9999992699274731
  4.2511866991566922  2.4544238263080325  9.9999992699274731
  5.6682489350430476  3.2725651033803258 12.3140521285726940
  4.2511865353241625  0.8181412770722933 12.3140521285726940
  2.8341246356052405  3.2725651033803258 12.3140521285726940
  1.4170622358863552  0.8181412770722933 12.3140521285726940
  2.8396677238198840  1.6330073709907613 14.6484692277850215
  4.2509814400057540  4.0908438527311306 14.5210875006651712
  5.6621993666019348  1.6333281740025551 14.6484210305849878
  7.0851981070656862  4.0974912325949404 14.6485638982177857
  4.2513708694596666  0.8167368017615558 15.5965817165468010
