Pt Ta Pt Ta Pt Ta Pt  H 
 1.0000000000000000
     5.6682485988756142    0.0000000000000000    0.0000000000000000
     2.8341247994377712    4.9088476526160649    0.0000000000000000
     0.0000000000000000    0.0000000000000000   24.6281042571453881
 Pt  Ta  Pt  Ta  Pt  Ta  Pt  H  
   1   1   3   1   3   1   2   1
Cartesian
  0.0000000000000000  0.0000000000000000  9.9999992699274731
  1.4170623997188856  2.4544238263080325  9.9999992699274731
  2.8341242994378071  0.0000000000000000  9.9999992699274731
  4.2511866991566922  2.4544238263080325  9.9999992699274731
  5.6682489350430476  3.2725651033803258 12.3140521285726940
  4.2511865353241625  0.8181412770722933 12.3140521285726940
  2.8341246356052405  3.2725651033803258 12.3140521285726940
  1.4170622358863552  0.8181412770722933 12.3140521285726940
  2.8705595391435059  1.6820967262006519 14.6479009835354947
  4.2511891834324116  4.0559641339124202 14.5586550631303933
  5.6316196635039546  1.6819780449909545 14.6480601303452040
  7.0853650599398010  4.1558881900239371 14.5805991473293872
  1.4168913083992214  0.9151976678355614 15.6676598784910723
