 W Nb  W Nb  W Nb  W  H 
 1.0000000000000000
     5.7805395909291288    0.0000000000000000    0.0000000000000000
     2.8902697954645644    5.0060946457341968    0.0000000000000000
     0.0000000000000000    0.0000000000000000   24.7197892506571257
 W   Nb  W   Nb  W   Nb  W   H  
   1   1   3   1   3   1   2   1
Cartesian
  0.0000000000000000  0.0000000000000000  9.9999992046113988
  1.4451348977322822  2.5030473228670984  9.9999992046113988
  2.8902697954645644  0.0000000000000000  9.9999992046113988
  4.3354046931968462  2.5030473228670984  9.9999992046113988
  5.7805395938193982  3.3373964321581626 12.3598946253285629
  4.3354046960871164  0.8343491092910643 12.3598946253285629
  2.8902697983548342  3.3373964321581626 12.3598946253285629
  1.4451349006225518  0.8343491092910643 12.3598946253285629
  2.8369005937367775  1.6988635231864435 14.7017443032552766
  4.3339098138656649  4.1720042414022345 14.8514984180418459
  5.8314582947524505  1.6992923052050399 14.7019737523391001
  7.2241400559880784  4.1113264445116400 14.7019097775245200
  4.3344961022034045  0.8343631413743563 15.7246552635156220
