Au Tc Au Tc Au Tc  H 
 1.0000000000000000
     5.8335995871742368    0.0000000000000000    0.0000000000000000
    -2.9167997935871184    5.0520456424823870    0.0000000000000000
     0.0000000000000000    0.0000000000000000   24.7631122475912946
 Au  Tc  Au  Tc  Au  Tc  H  
   3   1   3   1   3   1   1
Cartesian
  0.0000000000000000  0.0000000000000000  9.9999992923310419
  4.3751995903806851  2.5260227212412008  9.9999992923310419
  1.4583998967935592  2.5260227212412008  9.9999992923310419
  2.9167997935871184  0.0000000000000000  9.9999992923310419
  2.9167997935871184  1.6840150808274719 12.3815563237956319
  1.4583998967935592  4.2100378020686726 12.3815563237956319
 -1.4583998967935592  4.2100378020686726 12.3815563237956319
  0.0000000000000000  1.6840150808274719 12.3815563237956319
 -0.0000649999954002  3.3269700645606397 14.8441007495289963
  1.4227527993161939  0.8626490389530009 14.8441080495284794
  4.4106991878684880  0.8625957389567729 14.8440138495351448
  2.9167579935900765  3.3680580616529694 14.5635426693832208
  2.9167470935908475  0.0000793999943811 15.6838166901048996
