Al Tl Al Tl Al Tl Al  H 
 1.0000000000000000
     6.1535595645316601    0.0000000000000000    0.0000000000000000
     3.0767797822658300    5.3291386228733755    0.0000000000000000
     0.0000000000000000    0.0000000000000000   25.0243592291036521
 Al  Tl  Al  Tl  Al  Tl  Al  H  
   1   1   3   1   3   1   2   1
Cartesian
  0.0000000000000000  0.0000000000000000  9.9999993813281627
  1.5383898911329150  2.6645693114366877  9.9999993813281627
  3.0767797822658300  0.0000000000000000  9.9999993813281627
  4.6151696733987446  2.6645693114366877  9.9999993813281627
  6.1535595676084398  3.5527590836919631 12.5121796145518260
  4.6151696764755252  0.8881897722552754 12.5121796145518260
  3.0767797853426098  3.5527590836919631 12.5121796145518260
  1.5383898942096947  0.8881897722552754 12.5121796145518260
  2.9547072244659067  1.8474923643358281 14.8211190339616543
  4.6148676474649779  4.4402199203789863 15.5375500477355963
  6.2743267031287839  1.8472036049595477 14.8211824957366591
  7.6913928169734866  4.3035883894527727 14.8214211530506255
  4.6166287839052291  0.8799933971791375 15.4693912255276462
