Os Mo Os Mo Os Mo Os  H 
 1.0000000000000000
     5.5027476105876065    0.0000000000000000    0.0000000000000000
     2.7513738052938033    4.7655196627589431    0.0000000000000000
     0.0000000000000000    0.0000000000000000   24.4929732667081907
 Os  Mo  Os  Mo  Os  Mo  Os  H  
   1   1   3   1   3   1   2   1
Cartesian
  0.0000000000000000  0.0000000000000000  9.9999992814917178
  1.3756869026469016  2.3827598313794716  9.9999992814917178
  2.7513738052938033  0.0000000000000000  9.9999992814917178
  4.1270607079407053  2.3827598313794716  9.9999992814917178
  5.5027476133389808  3.1770131100944687 12.2464866333540954
  4.1270607106920787  0.7942532787149971 12.2464866333540954
  2.7513738080451771  3.1770131100944687 12.2464866333540954
  1.3756869053982754  0.7942532787149971 12.2464866333540954
  2.7971130011116023  1.5863325368908829 14.4171113357791132
  4.1270658860262062  3.9193566505994371 14.4044709286567088
  5.4568760104081750  1.5863749643124405 14.4171259335911799
  6.8783842181213473  3.9587629042494985 14.3898358382844407
  1.3754955005767626  0.9160139978579683 15.4619537268262803
