Bi Cd Bi Cd Bi Cd Bi  H 
 1.0000000000000000
     7.0731164994574662    0.0000000000000000    0.0000000000000000
     3.5365587497286977    6.1254985665174502    0.0000000000000000
     0.0000000000000000    0.0000000000000000   25.7751741759708040
 Bi  Cd  Bi  Cd  Bi  Cd  Bi  H  
   1   1   3   1   3   1   2   1
Cartesian
  0.0000000000000000  0.0000000000000000  9.9999993512103575
  1.7682793748643488  3.0627492832587251  9.9999993512103575
  3.5365582497287331  0.0000000000000000  9.9999993512103575
  5.3048376245930822  3.0627492832587251  9.9999993512103575
  7.0731168363273342  4.0836657130534659 12.8875870879854020
  5.3048374614629852  1.0209164297947411 12.8875870879854020
  3.5365585865986011  4.0836657130534659 12.8875870879854020
  1.7682792117342523  1.0209164297947411 12.8875870879854020
  3.4691458157320403  2.0794258957365006 15.6690288170028467
  5.3041866967658517  5.1049021756463135 15.8599015339019438
  7.1377416659214514  2.0813835315723770 15.6691858393639265
  8.8426570054039981  5.0306095501966936 15.6692627524836663
  5.3057131236907313  1.0184103351937148 16.5576924877555776
