Cr Re Cr Re Cr Re Cr  H 
 1.0000000000000000
     5.2519926283327587    0.0000000000000000    0.0000000000000000
     2.6259958141664148    4.5483586781267524    0.0000000000000000
     0.0000000000000000    0.0000000000000000   24.2882322811970752
 Cr  Re  Cr  Re  Cr  Re  Cr  H  
   1   1   3   1   3   1   2   1
Cartesian
  0.0000000000000000  0.0000000000000000  9.9999992312437698
  1.3129979070832074  2.2741793390633762  9.9999992312437698
  2.6259963141663794  0.0000000000000000  9.9999992312437698
  3.9389942212495868  2.2741793390633762  9.9999992312437698
  5.2519922976254456  3.0322391202672878 12.1441161405985376
  3.9389943905422378  0.7580597812039116 12.1441161405985376
  2.6259959834590658  3.0322391202672878 12.1441161405985376
  1.3129980763758584  0.7580597812039116 12.1441161405985376
  2.6049711198492504  1.5278641749939283 14.2094856218100460
  3.9766944777231652  3.7680998910117784 14.2456482008358929
  5.2728554022756384  1.5525551311092038 14.2631279558440252
  6.5434469011986476  3.7538297840762089 14.2630997572063496
  2.5938677372448438  4.5667190876346915 15.2876962857242589
