Al Ag Al Ag Al Ag Al  H 
 1.0000000000000000
     5.8174685883157773    0.0000000000000000    0.0000000000000000
    -2.9087337941579241    5.0384046434477181    0.0000000000000000
     0.0000000000000000    0.0000000000000000   24.7500962485123956
 Al  Ag  Al  Ag  Al  Ag  Al  H  
   1   2   2   2   2   2   1   1
Cartesian
  0.0000000000000000  0.0000000000000000  9.9999991633833538
  4.3631016912368157  2.5192023217238591  9.9999991633833538
  1.4543673970789266  2.5192023217238591  9.9999991633833538
  2.9087342941578886  0.0000000000000000  9.9999991633833538
  2.9087344637115033  1.6792488003576918 12.3750481242561978
  1.4543675666325413  4.1984511220815506 12.3750481242561978
 -1.4543667275253469  4.1984511220815506 12.3750481242561978
  0.0000001695536149  1.6792488003576918 12.3750481242561978
 -0.0023173580095750  3.2394526748487036 14.7685825855157074
  1.4540777707449246  0.8995366517298189 14.7803978112129197
  4.3629616542874370  0.4790823989194734 15.0267962311604588
  2.9108314552850176  3.2394461098074534 14.7686081276150372
  4.3630648061118293  2.9056292855486903 15.7629123562789033
