 Y Hf  Y Hf  Y Hf  Y  H 
 1.0000000000000000
     6.9120895108528471    0.0000000000000000    0.0000000000000000
     3.4560447554264235    5.9860455763861067    0.0000000000000000
     0.0000000000000000    0.0000000000000000   25.6436961852750969
 Y   Hf  Y   Hf  Y   Hf  Y   H  
   1   1   3   1   3   1   2   1
Cartesian
  0.0000000000000000  0.0000000000000000  9.9999992755132290
  1.7280223777132118  2.9930227881930533  9.9999992755132290
  3.4560447554264235  0.0000000000000000  9.9999992755132290
  5.1840671331396351  2.9930227881930533  9.9999992755132290
  6.9120895143088914  3.9906970529194195 12.8218480926375484
  5.1840671365956794  0.9976742647263662 12.8218480926375484
  3.4560447588824683  3.9906970529194195 12.8218480926375484
  1.7280223811692563  0.9976742647263662 12.8218480926375484
  3.4669213499092106  1.9889982569472056 15.5329152703558098
  5.0904768121625423  5.0424653558454589 15.4279701618452130
  6.8800371737303561  1.9443195082114002 15.6111244150858131
  8.6686619355982515  5.0418169833048978 15.6114918636084496
  3.6502740697801972  5.8736622876933717 16.6410932405326086
