Os Mo Os Mo Os Mo Os  H 
 1.0000000000000000
     5.5027476105876065    0.0000000000000000    0.0000000000000000
     2.7513738052938033    4.7655196627589431    0.0000000000000000
     0.0000000000000000    0.0000000000000000   24.4929732667081907
 Os  Mo  Os  Mo  Os  Mo  Os  H  
   1   1   3   1   3   1   2   1
Cartesian
  0.0000000000000000  0.0000000000000000  9.9999992814917178
  1.3756869026469016  2.3827598313794716  9.9999992814917178
  2.7513738052938033  0.0000000000000000  9.9999992814917178
  4.1270607079407053  2.3827598313794716  9.9999992814917178
  5.5027476133389808  3.1770131100944687 12.2464866333540954
  4.1270607106920787  0.7942532787149971 12.2464866333540954
  2.7513738080451771  3.1770131100944687 12.2464866333540954
  1.3756869053982754  0.7942532787149971 12.2464866333540954
  2.7286598938716766  1.6015570664610101 14.4111846975588467
  4.1271302296540169  3.9711720982374183 14.3877961859356542
  5.5254474982574475  1.6014645915519543 14.4112533023769682
  6.8783741480932203  3.9450969283540376 14.4113279324665111
  4.1268456798236999  0.7943991798649921 15.4443409277220844
