Cd Pt Cd Pt Cd Pt  H 
 1.0000000000000000
     5.7969105897706035    0.0000000000000000    0.0000000000000000
     2.6111458152173035    5.1755276337439495    0.0000000000000000
     0.0000000000000000    0.0000000000000000   24.7896382457141264
 Cd  Pt  Cd  Pt  Cd  Pt  H  
   2   2   2   2   2   2   1
Cartesian
  0.0000000000000000  0.0000000000000000  9.9999992923310419
  4.2040278024939823  2.5877638168719748  9.9999992923310419
  2.8984550948853158  0.0000000000000000  9.9999992923310419
  1.3055727076086656  2.5877638168719748  9.9999992923310419
  5.7969100897706385  3.5682528474858048 12.3948193228570496
  1.5928823872766500  0.9804890306138301 12.3948193228570496
  2.8984550948853158  3.5682528474858048 12.3948193228570496
  4.4913373821619729  0.9804890306138301 12.3948193228570496
  3.2831054676648010  2.0206227570067901 14.9049064452259650
  7.4442368731944271  4.5813402757927468 14.9212445440697685
  6.1313073661063804  2.0273320565319937 14.7660720550508433
  4.5712574765062755  4.5611101772243687 14.7652969551056952
  1.2522606113813974  0.7705359454715592 15.6252049942526678
