Fe La Fe La Fe La Fe  H 
 1.0000000000000000
     6.2476695578717889    0.0000000000000000    0.0000000000000000
     2.0890258521661149    5.8880675833197049    0.0000000000000000
     0.0000000000000000    0.0000000000000000   25.1031662235267277
 Fe  La  Fe  La  Fe  La  Fe  H  
   1   2   2   2   2   2   1   1
Cartesian
  0.0000000000000000  0.0000000000000000  9.9999994446621674
  1.0445129260830575  2.9440337916598525  9.9999994446621674
  3.1238347789358945  0.0000000000000000  9.9999994446621674
  4.1683477050189524  2.9440337916598525  9.9999994446621674
  6.2476691005980616  4.4126234788722316 12.5515831117633638
  5.2031561745150041  1.4685896872123791 12.5515831117633638
  3.1238343216621667  4.4126234788722316 12.5515831117633638
  2.0793213955791092  1.4685896872123791 12.5515831117633638
  4.6307744007711253  2.5780129514916772 14.9788502264100885
  5.0980594898959746  5.8063659292590097 15.2044598117981256
  7.5391558841643143  3.1179032458958100 15.1754921135471523
  8.1420074790598669  6.4425601970094579 14.9774504236551333
  5.0831086971491493  1.3858158101566940 16.1672697870310493
