Ni Ru Ni Ru Ni Ru Ni  H 
 1.0000000000000000
     5.2359936294649581    0.0000000000000000    0.0000000000000000
     2.6177398147506663    4.5346516790967550    0.0000000000000000
     0.0000000000000000    0.0000000000000000   24.2752392821165515
 Ni  Ru  Ni  Ru  Ni  Ru  Ni  H  
   1   2   2   2   2   2   1   1
Cartesian
  0.0000000000000000  0.0000000000000000  9.9999993594397978
  1.3088699073753332  2.2673258395483775  9.9999993594397978
  2.6179968147324790  0.0000000000000000  9.9999993594397978
  3.9268667221078122  2.2673258395483775  9.9999993594397978
  5.2359934001984758  3.0231999128308682 12.1376196410582757
  3.9271234928231431  0.7558740732824905 12.1376196410582757
  2.6179965854659972  3.0231999128308682 12.1376196410582757
  1.3091266780906641  0.7558740732824905 12.1376196410582757
  2.5950550664526695  1.4983066000775778 14.2263003848525464
  3.9414193504836761  3.7157965269796485 14.2411141796977834
  5.1886001232804730  1.5558198684719657 14.2411269970241232
  6.5549780454843170  3.7847615412393041 14.1845237176080730
  1.3290713781667716  0.7675283185531397 15.2359123930931499
