Co Zn Co Zn Co Zn Co  H 
 1.0000000000000000
     5.1590636349090557    0.0000000000000000    0.0000000000000000
    -2.5795318174545279    4.5341216791342607    0.0000000000000000
     0.0000000000000000    0.0000000000000000   24.2427922844127224
 Co  Zn  Co  Zn  Co  Zn  Co  H  
   1   2   2   2   2   2   1   1
Cartesian
  0.0000000000000000  0.0000000000000000  9.9999993786423644
 -1.2897659087272639  2.2670608395671303  9.9999993786423644
  1.2897659087272639  2.2670608395671303  9.9999993786423644
  2.5795318174545279  0.0000000000000000  9.9999993786423644
  2.5795318174545279  1.4675353778830573 12.1213961422063612
  1.2897659087272637  3.7345962174501879 12.1213961422063612
 -1.2897659087272642  3.7345962174501879 12.1213961422063612
  0.0000000000000000  1.4675353778830573 12.1213961422063612
 -0.0000478890081912  2.7870695927337406 14.0831993556279045
  1.3086034712077799  0.5931572167920901 14.4123336614717843
  3.8505576261519341  0.5935438730865216 14.4125772530486600
  2.5790000469703598  2.8377350245774147 14.1437924452189563
  2.5784735232539080  3.8801733528845852 15.3608033818784300
