Ni Zn Ni Zn Ni Zn  H 
 1.0000000000000000
     5.0855486401114840    0.0000000000000000    0.0000000000000000
    -2.5427748200557065    4.4042146883273761    0.0000000000000000
     0.0000000000000000    0.0000000000000000   24.1523322908142966
 Ni  Zn  Ni  Zn  Ni  Zn  H  
   3   1   3   1   3   1   1
Cartesian
  0.0000000000000000  0.0000000000000000  9.9999992923310419
 -1.2713873100278603  2.2021073441636880  9.9999992923310419
  1.2713873100278603  2.2021073441636880  9.9999992923310419
  0.0000000000000000  4.4042146883273761  9.9999992923310419
  2.5427745200557275  1.4680715961091231 12.0761660454071560
  1.2713873100278603  3.6701789402728111 12.0761660454071560
 -1.2713873100278603  3.6701789402728111 12.0761660454071560
  0.0000000000000000  1.4680715961091231 12.0761660454071560
  0.0002323999835538  2.9497421912558868 14.0752048039413786
  1.2820276092748792  0.7273300485291065 14.0757550039024419
  3.8028120308867779  0.7266778485752607 14.0753181039333590
  2.5419102201168915  2.9367677921740447 14.2601756908515629
  2.5427274200590610  2.9360541922245442 15.8510997782667946
