Cu Zr Cu Zr Cu Zr  H 
 1.0000000000000000
     5.6824135978732002    0.0000000000000000    0.0000000000000000
     1.9071468650371268    5.3528136211979698    0.0000000000000000
     0.0000000000000000    0.0000000000000000   24.6435902560494959
 Cu  Zr  Cu  Zr  Cu  Zr  H  
   2   2   2   2   2   2   1
Cartesian
  0.0000000000000000  0.0000000000000000  9.9999992923310419
  3.7947802314551637  2.6764066105989990  9.9999992923310419
  2.8412065989366146  0.0000000000000000  9.9999992923310419
  0.9535736325185493  2.6764066105989990  9.9999992923310419
  5.6824132978732216  4.0077284163854809 12.3217949280247616
  1.8876330664180581  1.3313218057864820 12.3217949280247616
  2.8412065989366146  4.0077284163854809 12.3217949280247616
  4.7288396653546725  1.3313218057864820 12.3217949280247616
  3.7805129324648163  2.6580632118971046 14.4496329774442565
  7.5675013644713820  5.3455115217147160 14.4499032774251290
  6.6208447314633379  2.6657349113542019 14.7901697533455252
  4.7287909653581188  5.3390161221743755 14.6212953652962412
  6.6189311315987567  2.6644121114478123 16.6735008200680213
