Tl Pb Tl Pb Tl Pb Tl  H 
 1.0000000000000000
     7.1540434937305140    0.0000000000000000    0.0000000000000000
     3.5770217468652570    6.1955835615577532    0.0000000000000000
     0.0000000000000000    0.0000000000000000   25.8412501712948135
 Tl  Pb  Tl  Pb  Tl  Pb  Tl  H  
   1   1   3   1   3   1   2   1
Cartesian
  0.0000000000000000  0.0000000000000000  9.9999991332923504
  1.7885108734326285  3.0977917807788766  9.9999991332923504
  3.5770217468652570  0.0000000000000000  9.9999991332923504
  5.3655326202978859  3.0977917807788766  9.9999991332923504
  7.1540434973075353  4.1303890431036967 12.9206250856474067
  5.3655326238749073  1.0325972623248201 12.9206250856474067
  3.5770217504422783  4.1303890431036967 12.9206250856474067
  1.7885108770096503  1.0325972623248201 12.9206250856474067
  3.6521085305879479  2.0215061503198908 15.9334819225913371
  5.3645670354705146  5.1637567076576456 15.6433001362352986
  7.0782419209061906  2.0212162217915446 15.9338525119600458
  8.9428007059197832  5.2494267465222739 15.9340417474350478
  1.7885278642859261  3.0981930563349915 16.3948468742008515
