Zr Re Zr Re Zr Re Zr  H 
 1.0000000000000000
     5.7182915953342262    0.0000000000000000    0.0000000000000000
     1.9095528648668618    5.3900336185640256    0.0000000000000000
     0.0000000000000000    0.0000000000000000   24.6700182541792650
 Zr  Re  Zr  Re  Zr  Re  Zr  H  
   1   2   2   2   2   2   1   1
Cartesian
  0.0000000000000000  0.0000000000000000  9.9999994976971873
  0.9547764324334309  2.6950168092820128  9.9999994976971873
  2.8591457976671131  0.0000000000000000  9.9999994976971873
  3.8139222301005438  2.6950168092820128  9.9999994976971873
  5.7182915027652177  4.0406937505698677 12.3350091270896325
  4.7635150703317866  1.3456769412878553 12.3350091270896325
  2.8591457050981042  4.0406937505698677 12.3350091270896325
  1.9043692726646735  1.3456769412878553 12.3350091270896325
  3.7748582658304048  2.6673607462164046 14.6959398653719813
  4.8281578325710885  5.2986570793328802 14.6081592777901630
  6.6067178730346052  2.7816525498339839 14.6080792975909830
  7.6628683134457045  5.4148224370761380 14.6917249434132184
  1.8837364660028952  1.3309123563786072 15.4449456481666445
