 V Pd  V Pd  V Pd  V  H 
 1.0000000000000000
     5.4027786176621015    0.0000000000000000    0.0000000000000000
    -2.7013898088310153    4.7821266615837166    0.0000000000000000
     0.0000000000000000    0.0000000000000000   24.4581782691705243
 V   Pd  V   Pd  V   Pd  V   H  
   1   2   2   2   2   2   1   1
Cartesian
  0.0000000000000000  0.0000000000000000  9.9999991386198523
 -1.3506949044155077  2.3910633307918583  9.9999991386198523
  1.3506944044155431  2.3910633307918583  9.9999991386198523
  2.7013893088310508  0.0000000000000000  9.9999991386198523
  2.7013891492790663  1.5259957079609969 12.2290891345852621
  1.3506942448635590  3.9170590387528552 12.2290891345852621
 -1.3506950639674922  3.9170590387528552 12.2290891345852621
 -0.0000001595519847  1.5259957079609969 12.2290891345852621
  0.0593604145015545  3.0029492436766945 14.2981280159785733
  1.3504993530766400  0.6104802880488169 14.5164249858152541
  4.0519793443436241  0.7444632539906456 14.4402828613875140
  2.6417133465320473  3.0027900992835237 14.2982096573776349
  1.3504925496991917  2.3279416355759039 15.4638209836012539
