Pt Tl Pt Tl Pt Tl Pt  H 
 1.0000000000000000
     5.9726335773352321    0.0000000000000000    0.0000000000000000
     1.8236638709449597    5.6874065975198622    0.0000000000000000
     0.0000000000000000    0.0000000000000000   24.8151642439077342
 Pt  Tl  Pt  Tl  Pt  Tl  Pt  H  
   1   2   2   2   2   2   1   1
Cartesian
  0.0000000000000000  0.0000000000000000  9.9999992534564655
  0.9118319354724799  2.8437032987599311  9.9999992534564655
  2.9863167886676161  0.0000000000000000  9.9999992534564655
  3.8981487241400958  2.8437032987599311  9.9999992534564655
  5.9726332978519157  4.3570418199299299 12.4075821219538671
  5.0608013623794363  1.5133385211699992 12.4075821219538671
  2.9863165091842996  4.3570418199299299 12.4075821219538671
  2.0744845737118198  1.5133385211699992 12.4075821219538671
  4.6057642721068586  3.3607042386544754 14.6827468321313770
  3.6053702193591759  0.4350247655383346 15.3045825883701880
  1.5144755148562414  3.2995888460832430 15.3038643134411494
  0.6545808944964447  0.4771691081651221 14.5384248643388467
  4.3465291297197295  3.1716818699090670 16.2409143460759005
