Cr Nb Cr Nb Cr Nb Cr  H 
 1.0000000000000000
     5.3726686197928926    0.0000000000000000    0.0000000000000000
     1.7891818733851439    5.0660036414946230    0.0000000000000000
     0.0000000000000000    0.0000000000000000   24.3862392742614240
 Cr  Nb  Cr  Nb  Cr  Nb  Cr  H  
   1   2   2   2   2   2   1   1
Cartesian
  0.0000000000000000  0.0000000000000000  9.9999991012604283
  0.8945909366925719  2.5330018207473115  9.9999991012604283
  2.6863343098964463  0.0000000000000000  9.9999991012604283
  3.5809252465890182  2.5330018207473115  9.9999991012604283
  5.3726688169771855  3.8004088213342739 12.1931196371307120
  4.4780778802846131  1.2674070005869624 12.1931196371307120
  2.6863345070807392  3.8004088213342739 12.1931196371307120
  1.7917435703881672  1.2674070005869624 12.1931196371307120
  3.5812745591743118  2.5366636497634714 14.2889987758104358
  2.6778753927392596 -0.0058240044363533 14.4064759231232582
  0.9084696965082250  2.5427886001461473 14.4111215260912431
  0.0036101116517706 -0.0008149477417927 14.2887838354974743
  4.3188707424521260  1.1547900537287628 15.2870047889774519
