Re Ta Re Ta Re Ta Re  H 
 1.0000000000000000
     5.6372236010711561    0.0000000000000000    0.0000000000000000
     2.8186118005355780    4.8819786545175008    0.0000000000000000
     0.0000000000000000    0.0000000000000000   24.6027722589380566
 Re  Ta  Re  Ta  Re  Ta  Re  H  
   1   1   3   1   3   1   2   1
Cartesian
  0.0000000000000000  0.0000000000000000  9.9999992408582923
  1.4093059002677890  2.4409893272587504  9.9999992408582923
  2.8186118005355780  0.0000000000000000  9.9999992408582923
  4.2279177008033670  2.4409893272587504  9.9999992408582923
  5.6372236038897681  3.2546524379723265 12.3013861294690283
  4.2279177036219791  0.8136631107135763 12.3013861294690283
  2.8186118033541900  3.2546524379723265 12.3013861294690283
  1.4093059030864006  0.8136631107135763 12.3013861294690283
  2.8922562500779687  1.6262041913910064 14.5426887919438368
  4.2277078974339943  4.0833608842051605 14.5374173773568653
  5.5632688110950790  1.6261428151553616 14.5427263849798489
  7.0463586173613137  3.9433487827482789 14.4888875971846254
  1.4090683561210753  0.9619281482661333 15.5987544754217300
