Cu Rh Cu Rh Cu Rh  H 
 1.0000000000000000
     5.3318316226828006    0.0000000000000000    0.0000000000000000
     2.6303918138553235    4.6378296717951679    0.0000000000000000
     0.0000000000000000    0.0000000000000000   24.3627342759248009
 Cu  Rh  Cu  Rh  Cu  Rh  H  
   2   2   2   2   2   2   1
Cartesian
  0.0000000000000000  0.0000000000000000  9.9999992923310419
  3.9811115182690759  2.3189148358975840  9.9999992923310419
  2.6659157113414071  0.0000000000000000  9.9999992923310419
  1.3151958069276688  2.3189148358975840  9.9999992923310419
  5.3318313226828220  3.1056811802205679 12.1813670379624064
  1.3507198044137456  0.7867662443229912 12.1813670379624064
  2.6659157113414071  3.1056811802205679 12.1813670379624064
  4.0166355157551532  0.7867662443229912 12.1813670379624064
  2.5986681161003111  1.5126008929579227 14.3690305831482377
  6.6242763312204938  3.8649108264922392 14.3408571851419815
  5.2811262262710645  1.5813108880955291 14.3640850834982157
  3.9735801188020496  3.8122991302154059 14.3653474834088790
  1.1578153180649984  0.6740776522976136 15.3339802148617430
