Cu Rh Cu Rh Cu Rh  H 
 1.0000000000000000
     5.3318316226828006    0.0000000000000000    0.0000000000000000
     2.6303918138553235    4.6378296717951679    0.0000000000000000
     0.0000000000000000    0.0000000000000000   24.3627342759248009
 Cu  Rh  Cu  Rh  Cu  Rh  H  
   2   2   2   2   2   2   1
Cartesian
  0.0000000000000000  0.0000000000000000  9.9999992923310419
  3.9811115182690759  2.3189148358975840  9.9999992923310419
  2.6659157113414071  0.0000000000000000  9.9999992923310419
  1.3151958069276688  2.3189148358975840  9.9999992923310419
  5.3318313226828220  3.1056811802205679 12.1813670379624064
  1.3507198044137456  0.7867662443229912 12.1813670379624064
  2.6659157113414071  3.1056811802205679 12.1813670379624064
  4.0166355157551532  0.7867662443229912 12.1813670379624064
  2.5511595194623471  1.4988694939296512 14.3821448822201798
  6.5434365369412753  3.7986335311824777 14.3821306822211845
  5.2275521300623371  1.4921296944066060 14.4006656809095208
  3.8971327242119953  3.8228732294671093 14.3229594864085481
  4.0148980158781100  0.7860000443772128 15.3377960145917100
