Ga La Ga La Ga La Ga  H 
 1.0000000000000000
     6.6225805313405006    0.0000000000000000    0.0000000000000000
     2.0801258527959399    6.2874195550588041    0.0000000000000000
     0.0000000000000000    0.0000000000000000   25.3629832051402815
 Ga  La  Ga  La  Ga  La  Ga  H  
   1   2   2   2   2   2   1   1
Cartesian
  0.0000000000000000  0.0000000000000000  9.9999992324287064
  1.0400629263979699  3.1437097775294021  9.9999992324287064
  3.3112902656702503  0.0000000000000000  9.9999992324287064
  4.3513531920682205  3.1437097775294021  9.9999992324287064
  6.6225805349548033  4.7845969428920831 12.6814916025701407
  5.5825176085568335  1.6408871653626806 12.6814916025701407
  3.3112902692845525  4.7845969428920831 12.6814916025701407
  2.2712273428865828  1.6408871653626806 12.6814916025701407
  4.0911533748030156  3.5812941342679534 15.5226939931537977
  3.6364132272123308  0.2337295028023675 15.3126144830302433
  0.8257301975756189  2.9877872300441175 15.3141195224536357
  0.3343740692566984 -0.3857526178292828 15.5222943486274350
  5.5405923473927814  1.6142445330816773 15.0110324311378402
