Co Re Co Re Co Re  H 
 1.0000000000000000
     5.2363716294382083    0.0000000000000000    0.0000000000000000
    -2.6181858147191042    4.5392076787743409    0.0000000000000000
     0.0000000000000000    0.0000000000000000   24.2775382819538557
 Co  Re  Co  Re  Co  Re  H  
   2   2   2   2   2   2   1
Cartesian
  0.0000000000000000  0.0000000000000000  9.9999992923310419
  2.6181859147190969  0.0000000000000000  9.9999992923310419
  1.3090929073595521  2.2696036393871846  9.9999992923310419
 -1.3090929073595521  2.2696036393871846  9.9999992923310419
  2.6181859147190969  1.5101528931311601 12.1387689409769433
  0.0000000000000000  1.5101528931311601 12.1387689409769433
 -1.3090929073595521  3.7797566325183376 12.1387689409769433
  1.3090929073595521  3.7797566325183376 12.1387689409769433
 -0.0021462998481130  3.0712761826553030 14.1779389966711964
  2.6203905145630846  3.0721523825932970 14.1783428966426150
  3.9269160221043231  0.8225046417938956 14.3065924875667889
  1.3094214073363051  0.8077984428346077 14.2086730944962412
  3.9273137220761796  0.7057022500596389 16.0024346675572957
