Re Ta Re Ta Re Ta Re  H 
 1.0000000000000000
     5.6372236010711561    0.0000000000000000    0.0000000000000000
     2.8186118005355780    4.8819786545175008    0.0000000000000000
     0.0000000000000000    0.0000000000000000   24.6027722589380566
 Re  Ta  Re  Ta  Re  Ta  Re  H  
   1   1   3   1   3   1   2   1
Cartesian
  0.0000000000000000  0.0000000000000000  9.9999992408582923
  1.4093059002677890  2.4409893272587504  9.9999992408582923
  2.8186118005355780  0.0000000000000000  9.9999992408582923
  4.2279177008033670  2.4409893272587504  9.9999992408582923
  5.6372236038897681  3.2546524379723265 12.3013861294690283
  4.2279177036219791  0.8136631107135763 12.3013861294690283
  2.8186118033541900  3.2546524379723265 12.3013861294690283
  1.4093059030864006  0.8136631107135763 12.3013861294690283
  2.8438942720409881  1.6126626078188924 14.5345914291268876
  4.2276644259841945  4.0683431416292581 14.5295374292383670
  5.6116666390555512  1.6127763335116492 14.5345973583950006
  7.0462530800796666  4.0978273244595220 14.5344185454462238
  1.4090556216329604  2.4409589271776686 15.4993120135701101
