La Ta La Ta La Ta La  H 
 1.0000000000000000
     6.2059495608241830    0.0000000000000000    0.0000000000000000
    -3.1029747804120915    6.0642545708514985    0.0000000000000000
     0.0000000000000000    0.0000000000000000   25.3319912073334912
 La  Ta  La  Ta  La  Ta  La  H  
   1   2   2   2   2   2   1   1
Cartesian
  0.0000000000000000  0.0000000000000000  9.9999991933949808
 -1.5514873902060458  3.0321272854257493  9.9999991933949808
  1.5514873902060458  3.0321272854257493  9.9999991933949808
  3.1029747804120915  0.0000000000000000  9.9999991933949808
  3.1029747773091163  1.5877389534689401 12.6659956036667456
  1.5514873871030708  4.6198662388946889 12.6659956036667456
 -1.5514873933090203  4.6198662388946889 12.6659956036667456
 -0.0000000031029747  1.5877389534689401 12.6659956036667456
 -0.0001639704963214  3.3208600840525193 15.5930823116587636
  1.4410038848474460  0.0013614554724290 15.0466123897690149
  4.7645248629489165  0.0012728809701672 15.0468403270258975
  3.1027533862644834  3.2833990368222512 15.5572545418664880
 -0.0002627133597836  0.6568367381442347 16.2326322287006946
