Cu Zr Cu Zr Cu Zr Cu  H 
 1.0000000000000000
     5.6056636033045599    0.0000000000000000    0.0000000000000000
     2.8028318016522800    4.8546466564517017    0.0000000000000000
     0.0000000000000000    0.0000000000000000   24.5770032607616464
 Cu  Zr  Cu  Zr  Cu  Zr  Cu  H  
   1   1   3   1   3   1   2   1
Cartesian
  0.0000000000000000  0.0000000000000000  9.9999991026680295
  1.4014159008261400  2.4273233282258508  9.9999991026680295
  2.8028318016522800  0.0000000000000000  9.9999991026680295
  4.2042477024784199  2.4273233282258508  9.9999991026680295
  5.6056636061073917  3.2364311059193498 12.2885016303808232
  4.2042477052812517  0.8091077776934992 12.2885016303808232
  2.8028318044551117  3.2364311059193498 12.2885016303808232
  1.4014159036289717  0.8091077776934992 12.2885016303808232
  2.7101926441837136  1.6719125496123846 14.4039503753806528
  4.2039526511774916  4.0458511878869050 14.5025445138956588
  5.6978654321242823  1.6719527897785198 14.4040505758229447
  7.0066343808066156  3.9375223255655603 14.4034337913491122
  1.4015060455025450  2.4280852455999944 15.3757588531136467
