Ni In Ni In Ni In  H 
 1.0000000000000000
     5.4893516115355991    0.0000000000000000    0.0000000000000000
     1.8115308718035745    5.1818276332981181    0.0000000000000000
     0.0000000000000000    0.0000000000000000   24.4763172678868841
 Ni  In  Ni  In  Ni  In  H  
   2   2   2   2   2   2   1
Cartesian
  0.0000000000000000  0.0000000000000000  9.9999992923310419
  3.6504412416695868  2.5909137166490659  9.9999992923310419
  2.7446758057677996  0.0000000000000000  9.9999992923310419
  0.9057654359017873  2.5909137166490659  9.9999992923310419
  5.4893515115356060  3.8960869242860032 12.2381585339434498
  1.8389102698660194  1.3051732076369371 12.2381585339434498
  2.7446758057677996  3.8960869242860032 12.2381585339434498
  4.5835860756338187  1.3051732076369371 12.2381585339434498
  3.6782434397021113  2.6106472152525875 14.4676888761664966
  0.0259261981652833  0.0184000986978820 14.2996321880593484
  0.9301046341793776  2.6078399154512515 14.6692128619052689
  2.7686888040684741  0.0173883987694769 14.6692119619053312
  3.6774638397572810  2.6100936152917642 15.9641225702685219
