Ga Cd Ga Cd Ga Cd Ga  H 
 1.0000000000000000
     6.3003955541405325    0.0000000000000000    0.0000000000000000
    -3.1501977770702663    5.5297556086763331    0.0000000000000000
     0.0000000000000000    0.0000000000000000   25.1780782182254370
 Ga  Cd  Ga  Cd  Ga  Cd  Ga  H  
   1   2   2   2   2   2   1   1
Cartesian
  0.0000000000000000  0.0000000000000000  9.9999994071071932
 -1.5750988885351331  2.7648778043381665  9.9999994071071932
  1.5750988885351331  2.7648778043381665  9.9999994071071932
  3.1501977770702663  0.0000000000000000  9.9999994071071932
  3.1501977802204637  1.7946083439692613 12.5890391091127185
  1.5750988916853310  4.5594861483074274 12.5890391091127185
 -1.5750988853849350  4.5594861483074274 12.5890391091127185
  0.0000000031501979  1.7946083439692613 12.5890391091127185
 -0.0258108147156586  3.5206740344978780 15.1657603859938188
  1.5749153044592787  0.5680302154468981 15.3968166387892431
  4.7246657282436191  0.8852068887673198 15.3262888887417148
  3.1740627524214018  3.5202377257208419 15.1650160968236118
  1.5740241292591348  3.1871320660428450 16.0149289165550357
