Ag Al Ag Al Ag Al  H 
 1.0000000000000000
     5.8412385866336480    0.0000000000000000    0.0000000000000000
    -2.9206197933167890    5.0586616420141937    0.0000000000000000
     0.0000000000000000    0.0000000000000000   24.7693502471498483
 Ag  Al  Ag  Al  Ag  Al  H  
   3   1   3   1   3   1   1
Cartesian
  0.0000000000000000  0.0000000000000000  9.9999992923310419
 -1.4603096966584086  2.5293306210071109  9.9999992923310419
  1.4603096966584086  2.5293306210071109  9.9999992923310419
  2.9206194933168099  0.0000000000000000  9.9999992923310419
  2.9206194933168099  1.6862204806714025 12.3846751235749242
  1.4603096966584086  4.2155511016785132 12.3846751235749242
 -1.4603096966584086  4.2155511016785132 12.3846751235749242
  0.0000000000000000  1.6862204806714025 12.3846751235749242
  0.1096145922429150  3.3343445640387692 14.9383748428575096
  1.5041129935585851  0.8178206421253678 14.7659022550628602
  4.4687298837618359  0.7672314457054084 14.9383689428579274
  2.8806347961464032  3.3955277597090241 14.7431235566748384
  4.1207037083905691  2.6795740103748518 15.7417900860023021
