Ag Cr Ag Cr Ag Cr  H 
 1.0000000000000000
     5.7885555903618604    0.0000000000000000    0.0000000000000000
    -2.8942777951809302    5.0130366452429325    0.0000000000000000
     0.0000000000000000    0.0000000000000000   24.7263342501939576
 Ag  Cr  Ag  Cr  Ag  Cr  H  
   3   1   3   1   3   1   1
Cartesian
  0.0000000000000000  0.0000000000000000  9.9999992923310419
 -1.4471389975904581  2.5065182226214735  9.9999992923310419
  1.4471389975904581  2.5065182226214735  9.9999992923310419
  2.8942778951809234  0.0000000000000000  9.9999992923310419
  2.8942778951809234  1.6710120817476539 12.3631673250969651
  1.4471389975904581  4.1775303043691272 12.3631673250969651
 -1.4471389975904581  4.1775303043691272 12.3631673250969651
  0.0000000000000000  1.6710120817476539 12.3631673250969651
  0.0754832946582812  3.3569787624370169 14.7990221527190684
  1.4978396940025269  0.8933951367771950 14.7990044527203199
  4.4152784875444260  0.8781474378562274 14.7277132577653767
  2.9209444932938111  3.3574196624058157 14.5962258670703324
 -1.6916401802878671  4.0363648143589721 15.6309694938447326
