Ag Al Ag Al Ag Al  H 
 1.0000000000000000
     5.8412385866336480    0.0000000000000000    0.0000000000000000
    -2.9206197933167890    5.0586616420141937    0.0000000000000000
     0.0000000000000000    0.0000000000000000   24.7693502471498483
 Ag  Al  Ag  Al  Ag  Al  H  
   3   1   3   1   3   1   1
Cartesian
  0.0000000000000000  0.0000000000000000  9.9999992923310419
 -1.4603096966584086  2.5293306210071109  9.9999992923310419
  1.4603096966584086  2.5293306210071109  9.9999992923310419
  2.9206194933168099  0.0000000000000000  9.9999992923310419
  2.9206194933168099  1.6862204806714025 12.3846751235749242
  1.4603096966584086  4.2155511016785132 12.3846751235749242
 -1.4603096966584086  4.2155511016785132 12.3846751235749242
  0.0000000000000000  1.6862204806714025 12.3846751235749242
  0.1153213918390625  3.4178143581318703 14.9744473403047706
  1.5572802897961002  0.9202929348737212 14.9744378403054430
  4.4763851832200938  0.8982139364361834 14.7602349554639183
  2.8350418993728712  3.3230301648394538 14.7497850562034234
 -1.7534361759147561  4.0463124136550102 15.7212445874562441
