Fe Ir Fe Ir Fe Ir  H 
 1.0000000000000000
     5.2781056264848232    0.0000000000000000    0.0000000000000000
     2.5372838204442876    4.6282376724739631    0.0000000000000000
     0.0000000000000000    0.0000000000000000   24.3342952779373398
 Fe  Ir  Fe  Ir  Fe  Ir  H  
   2   2   2   2   2   2   1
Cartesian
  0.0000000000000000  0.0000000000000000  9.9999992923310419
  3.9076944234645765  2.3141190362369675  9.9999992923310419
  2.6390527132424184  0.0000000000000000  9.9999992923310419
  1.2686418102221508  2.3141190362369675  9.9999992923310419
  5.2781053264848445  3.1256701788060086 12.1671475389686776
  1.3704109030202676  0.8115511425690408 12.1671475389686776
  2.6390527132424184  3.1256701788060086 12.1671475389686776
  4.0094635162626933  0.8115511425690408 12.1671475389686776
  2.6842644100429269  1.5876988876434703 14.3047634876962206
  6.5890572337128397  3.9040675237212410 14.3033784877942338
  5.3692873200321767  1.6180876854929493 14.3746682827492762
  3.9884566177492862  3.9235568223420434 14.2646697905335280
  5.3861543188385514  1.6267422848804900 15.9861307687110692
