Zn Ga Zn Ga Zn Ga Zn  H 
 1.0000000000000000
     5.7193895952565237    0.0000000000000000    0.0000000000000000
     2.8596947976282618    4.9531366494818698    0.0000000000000000
     0.0000000000000000    0.0000000000000000   24.6698602541904464
 Zn  Ga  Zn  Ga  Zn  Ga  Zn  H  
   1   1   3   1   3   1   2   1
Cartesian
  0.0000000000000000  0.0000000000000000  9.9999991252623719
  1.4298473988141309  2.4765683247409349  9.9999991252623719
  2.8596947976282618  0.0000000000000000  9.9999991252623719
  4.2895421964423930  2.4765683247409349  9.9999991252623719
  5.7193895981162184  3.3020911013056256 12.3349301270952232
  4.2895421993020877  0.8255227765646904 12.3349301270952232
  2.8596948004879565  3.3020911013056256 12.3349301270952232
  1.4298474016738256  0.8255227765646904 12.3349301270952232
  2.7542012399214939  1.7112832235547879 14.7669084366602803
  4.2887351991495866  4.1283028938502149 14.7341593698618638
  5.8243166874596088  1.7107135434961842 14.7668193291250400
  7.1499532961429546  4.0061335257807764 14.7665584946925730
  4.2893411713368987  0.8254903186602265 15.4375157607930458
