Os Ru Os Ru Os Ru  H 
 1.0000000000000000
     5.4464026145749669    0.0000000000000000    0.0000000000000000
    -2.7232008072875185    4.7167226662121546    0.0000000000000000
     0.0000000000000000    0.0000000000000000   24.4469672699638920
 Os  Ru  Os  Ru  Os  Ru  H  
   3   1   3   1   3   1   1
Cartesian
  0.0000000000000000  0.0000000000000000  9.9999992923310419
 -1.3616006036437454  2.3583614331060700  9.9999992923310419
  1.3616006036437454  2.3583614331060700  9.9999992923310419
  2.7232012072874907  0.0000000000000000  9.9999992923310419
  2.7232012072874907  1.5722409887373781 12.2234837349819401
  1.3616006036437454  3.9306023218434554 12.2234837349819401
 -1.3616006036437454  3.9306023218434554 12.2234837349819401
  0.0000000000000000  1.5722409887373781 12.2234837349819401
 -0.0000015999998868  3.1357145780951976 14.4050076806022496
  1.3725676028676446  0.7743958451984061 14.3326305857241518
  4.0738205117083481  0.7743873451990075 14.3326197857249191
  2.7232001072875680  3.1414833776869573 14.3506745844472352
 -0.0000015999998868  3.1606633763296483 16.0637286632197096
