La Ru La Ru La Ru  H 
 1.0000000000000000
     6.8418175158257784    0.0000000000000000    0.0000000000000000
    -3.4209087579128892    5.9251875806928389    0.0000000000000000
     0.0000000000000000    0.0000000000000000   25.5863191893354909
 La  Ru  La  Ru  La  Ru  H  
   3   1   3   1   3   1   1
Cartesian
  0.0000000000000000  0.0000000000000000  9.9999992923310419
 -1.7104543789564446  2.9625938903464122  9.9999992923310419
  1.7104543789564446  2.9625938903464122  9.9999992923310419
  3.4209087579128892  0.0000000000000000  9.9999992923310419
  3.4209087579128892  1.9750625602309437 12.7931595946677454
  1.7104543789564446  4.9376564505773555 12.7931595946677454
 -1.7104543789564446  4.9376564505773555 12.7931595946677454
  0.0000000000000000  1.9750625602309437 12.7931595946677454
 -0.0000309999978062  3.8423051280919740 15.6908344896082728
  1.6170438855668157  1.0415207262948061 15.6908282896087119
  5.2252138302278111  1.0410835263257454 15.6905721896268346
  3.4206405579318693  3.9503382204468069 14.8223897510654155
 -0.0000559999960371  1.9750996602283182 17.2137493818363048
