Rh Os Rh Os Rh Os Rh  H 
 1.0000000000000000
     5.4444626147122541    0.0000000000000000    0.0000000000000000
     2.7222308073561625    4.7150426663310432    0.0000000000000000
     0.0000000000000000    0.0000000000000000   24.4453832700759897
 Rh  Os  Rh  Os  Rh  Os  Rh  H  
   1   1   3   1   3   1   2   1
Cartesian
  0.0000000000000000  0.0000000000000000  9.9999991458038089
  1.3611154036780813  2.3575213331655216  9.9999991458038089
  2.7222313073561271  0.0000000000000000  9.9999991458038089
  4.0833467110342081  2.3575213331655216  9.9999991458038089
  5.4444622841011761  3.1433617791257098 12.2226916350379948
  4.0833468804230941  0.7858404459601881 12.2226916350379948
  2.7222309767450485  3.1433617791257098 12.2226916350379948
  1.3611155730669671  0.7858404459601881 12.2226916350379948
  2.7527522802684681  1.6031525145114878 14.4164799519844102
  4.0832920423088419  3.8803661093738193 14.3916823351867951
  5.4139022813209312  1.6032221556916697 14.4165703754571251
  6.8056139050697446  3.9794630050847362 14.3670682787721571
  1.3609544062937144  0.5528310388175127 15.4540558356709408
