Ag Al Ag Al Ag Al  H 
 1.0000000000000000
     5.8412385866336480    0.0000000000000000    0.0000000000000000
    -2.9206197933167890    5.0586616420141937    0.0000000000000000
     0.0000000000000000    0.0000000000000000   24.7693502471498483
 Ag  Al  Ag  Al  Ag  Al  H  
   3   1   3   1   3   1   1
Cartesian
  0.0000000000000000  0.0000000000000000  9.9999992923310419
 -1.4603096966584086  2.5293306210071109  9.9999992923310419
  1.4603096966584086  2.5293306210071109  9.9999992923310419
  2.9206194933168099  0.0000000000000000  9.9999992923310419
  2.9206194933168099  1.6862204806714025 12.3846751235749242
  1.4603096966584086  4.2155511016785132 12.3846751235749242
 -1.4603096966584086  4.2155511016785132 12.3846751235749242
  0.0000000000000000  1.6862204806714025 12.3846751235749242
 -0.0000027999998019  3.3405126636022717 14.9246615438279573
  1.4326510986157219  0.8590963392044145 14.9246976438254020
  4.4085940880174599  0.8590931392046410 14.9246874438261248
  2.9206181933169022  3.3724500613421613 14.7166772585463601
  2.9206205933167322  0.0000012999999080 15.7888648826709659
