Co Ir Co Ir Co Ir Co  H 
 1.0000000000000000
     5.2198116306101081    0.0000000000000000    0.0000000000000000
     2.5058678226675002    4.5789806759597287    0.0000000000000000
     0.0000000000000000    0.0000000000000000   24.2871482812737867
 Co  Ir  Co  Ir  Co  Ir  Co  H  
   1   2   2   2   2   2   1   1
Cartesian
  0.0000000000000000  0.0000000000000000  9.9999994195765343
  1.2529339113337501  2.2894903379798643  9.9999994195765343
  2.6099058153050541  0.0000000000000000  9.9999994195765343
  3.8628397266388044  2.2894903379798643  9.9999994195765343
  5.2198117884032973  3.0937624911560819 12.1435741406368933
  3.9668778770695470  0.8042721531762173 12.1435741406368933
  2.6099059730982428  3.0937624911560819 12.1435741406368933
  1.3569720617644927  0.8042721531762173 12.1435741406368933
  2.6117388107991948  1.5479820622959160 14.2422664788320912
  3.9262654097200933  3.8391755017694158 14.3063938522724463
  5.2527085911039606  1.6012174061091407 14.3064123347922880
  6.4779410497470877  3.8395281611241368 14.2491563542051161
  0.1305660125719999  0.0776347582947428 15.3082470250797016
