Co Ir Co Ir Co Ir Co  H 
 1.0000000000000000
     5.2198116306101081    0.0000000000000000    0.0000000000000000
     2.5058678226675002    4.5789806759597287    0.0000000000000000
     0.0000000000000000    0.0000000000000000   24.2871482812737867
 Co  Ir  Co  Ir  Co  Ir  Co  H  
   1   2   2   2   2   2   1   1
Cartesian
  0.0000000000000000  0.0000000000000000  9.9999994195765343
  1.2529339113337501  2.2894903379798643  9.9999994195765343
  2.6099058153050541  0.0000000000000000  9.9999994195765343
  3.8628397266388044  2.2894903379798643  9.9999994195765343
  5.2198117884032973  3.0937624911560819 12.1435741406368933
  3.9668778770695470  0.8042721531762173 12.1435741406368933
  2.6099059730982428  3.0937624911560819 12.1435741406368933
  1.3569720617644927  0.8042721531762173 12.1435741406368933
  2.6535941142817805  1.5730477367817088 14.2647864456301239
  3.9547290362653307  3.8458125465210120 14.3026107403332645
  5.2721779439917951  1.6231684258862809 14.3026442323107439
  6.5201179506423399  3.8647701767347411 14.2410982427126136
  1.2290653153399727  0.7282028613739523 15.3614245134302969
