Au Hg Au Hg Au Hg Au  H 
 1.0000000000000000
     6.1487495648720492    0.0000000000000000    0.0000000000000000
     2.8053418014746550    5.4714886127997078    0.0000000000000000
     0.0000000000000000    0.0000000000000000   25.0757482254670130
 Au  Hg  Au  Hg  Au  Hg  Au  H  
   1   2   2   2   2   2   1   1
Cartesian
  0.0000000000000000  0.0000000000000000  9.9999990850458076
  1.4026709007373275  2.7357443063998539  9.9999990850458076
  3.0743747824360246  0.0000000000000000  9.9999990850458076
  4.4770456831733521  2.7357443063998539  9.9999990850458076
  6.1487498996108414  3.7572561728728968 12.5378741127335065
  4.7460789988735144  1.0215118664730432 12.5378741127335065
  3.0743751171748173  3.7572561728728968 12.5378741127335065
  1.6717042164374898  1.0215118664730432 12.5378741127335065
  3.1710583081502790  2.0775304856630221 15.2978102623913781
  4.5337727800509349  4.6491281256425641 15.5421959719462084
  6.3891719682787009  2.0254010475207198 15.5204684128510504
  7.7720519152025851  4.6097588992958531 15.2995059847893771
  3.9323851738359101  0.5248769808509568 15.7615705033272526
