Ag  H 
 1.0000000000000000
     7.3072951467081557    0.0000000000000000    0.0000000000000000
     0.0000000000000000   11.9327630062339516    0.0000000000000000
     0.0000000000000000    0.0000000000000000   29.4729029090096226
 Ag  H  
  48   1
Cartesian
  4.9228199405187762  1.4714976840254745 19.3479525091953590
  4.8739095742606295  4.4728346663197183 19.3669107586338747
  4.9237395515533997  7.4829599381917609 19.3471273159910169
  4.8783537383370756 10.4427319283102591 19.3603871071727731
  2.4642709413106698  0.0081996100978740 18.5967852813807717
  2.4240743436400103  2.9786819746502706 18.7100495089211911
  2.4250301528184535  5.9713951862197421 18.7087694652971557
  2.4636926692271981  8.9444646230622649 18.5947564230750757
  0.0719869033427563  1.5014988751257108 17.7776289657665068
  0.0042420540119020  4.4743640078104221 17.8035354234403869
  0.0736097775952882  7.4496520387798828 17.7758228112700714
  0.0596442271496747 10.4419387146793117 17.7789410547291844
  4.9440999731268533  0.0006089692737942 16.8475445006485991
  4.9455985176400974  2.9766512699655987 16.8462399883933038
  4.9450318626474230  5.9736716949053843 16.8425415693173584
  4.9444067460315706  8.9504769199544079 16.8469016916632803
  2.4639842868151938  1.5232850329627532 16.0572624091969729
  2.4484206381295111  4.4749419032601407 16.0396929817070806
  2.4646438870706202  7.4263180702843234 16.0574519953763080
  2.4612372226181130 10.4428072929696132 16.0128414341063383
  0.0289211625712006  0.0062460536530699 15.1473238408593947
  0.0332318928602970  2.9839182737456791 15.1434886026243056
  0.0325628653295883  5.9654774694474995 15.1426359054390911
  0.0291641439654491  8.9439934905948100 15.1460871203687066
  4.8715300978054374  1.4915953757792437 14.3058649586407363
  4.8715300978054374  4.4747861273377314 14.3058649586407363
  4.8715300978054374  7.4579768788962193 14.3058649586407363
  4.8715300978054374 10.4411676304547072 14.3058649586407363
  2.4357650489027192  0.0000000000000000 13.4446919669125897
  2.4357650489027192  2.9831907515584879 13.4446919669125897
  2.4357650489027192  5.9663815031169758 13.4446919669125897
  2.4357650489027192  8.9495722546754628 13.4446919669125897
  0.0000000000000002  1.4915953757792437 12.5835189751844432
  0.0000000000000002  4.4747861273377314 12.5835189751844432
  0.0000000000000002  7.4579768788962193 12.5835189751844432
  0.0000000000000002 10.4411676304547072 12.5835189751844432
  4.8715300978054374  0.0000000000000000 11.7223459834562949
  4.8715300978054374  2.9831907515584879 11.7223459834562949
  4.8715300978054374  5.9663815031169758 11.7223459834562949
  4.8715300978054374  8.9495722546754628 11.7223459834562949
  2.4357650489027192  1.4915953757792437 10.8611729917281465
  2.4357650489027192  4.4747861273377314 10.8611729917281465
  2.4357650489027192  7.4579768788962193 10.8611729917281465
  2.4357650489027192 10.4411676304547072 10.8611729917281465
  0.0000000000000000  0.0000000000000000 10.0000000000000000
  0.0000000000000000  2.9831907515584879 10.0000000000000000
  0.0000000000000000  5.9663815031169758 10.0000000000000000
  0.0000000000000000  8.9495722546754628 10.0000000000000000
  2.9663496403528207  4.4734435581123808 19.8669203247873831
