Ir Pt Ir Pt Ir Pt  H 
 1.0000000000000000
     5.5526006070596639    0.0000000000000000    0.0000000000000000
     2.7473778055765874    4.8252766585301252    0.0000000000000000
     0.0000000000000000    0.0000000000000000   24.5413242632865405
 Ir  Pt  Ir  Pt  Ir  Pt  H  
   2   2   2   2   2   2   1
Cartesian
  0.0000000000000000  0.0000000000000000  9.9999992923310419
  4.1499895063181045  2.4126381292650767  9.9999992923310419
  2.7763004035298247  0.0000000000000000  9.9999992923310419
  1.3736891027882796  2.4126381292650767  9.9999992923310419
  5.5526009070596425  3.2280602715601794 12.2706620316432762
  1.4026114007415380  0.8154222422950951 12.2706620316432762
  2.7763004035298247  3.2280602715601794 12.2706620316432762
  4.1789118042713627  0.8154222422950951 12.2706620316432762
  2.7504178053614559  1.6114847859602159 14.4594175767518305
  6.9113036109084627  4.0054124165493770 14.4595993767389643
  5.5311396085783917  1.6015045866664839 14.6774257613240664
  4.1643216053038659  4.0350010144554833 14.5511577702596604
  5.5653477061575902  1.6214244852568145 16.2407980506890581
