 Y Zr  Y Zr  Y Zr  H 
 1.0000000000000000
     6.9395375089104370    0.0000000000000000    0.0000000000000000
    -3.4697687544552185    6.0098165747039065    0.0000000000000000
     0.0000000000000000    0.0000000000000000   25.6661071836891388
 Y   Zr  Y   Zr  Y   Zr  H  
   3   1   3   1   3   1   1
Cartesian
  0.0000000000000000  0.0000000000000000  9.9999992923310419
 -1.7348844772276024  3.0049080873519673  9.9999992923310419
  1.7348844772276024  3.0049080873519673  9.9999992923310419
  3.4697689544552048  0.0000000000000000  9.9999992923310419
  3.4697689544552048  2.0032720582346450 12.8330537918445557
  1.7348844772276024  5.0081801455866124 12.8330537918445557
 -1.7348844772276024  5.0081801455866124 12.8330537918445557
  0.0000000000000000  2.0032720582346450 12.8330537918445557
  0.0001200999915009  3.9795548183792389 15.6114443952264637
  1.7112811788979345  1.0161466280904523 15.6115808952168038
  5.2283277300074502  1.0160585280966870 15.6114388952268524
  3.4697053544597054  4.0067640164537286 15.5287646010774552
  3.4697243544583611  4.0062090164930044 17.4586378645063043
