Fe Ir Fe Ir Fe Ir Fe  H 
 1.0000000000000000
     5.2781056264848232    0.0000000000000000    0.0000000000000000
     2.5372838204442876    4.6282376724739631    0.0000000000000000
     0.0000000000000000    0.0000000000000000   24.3342952779373398
 Fe  Ir  Fe  Ir  Fe  Ir  Fe  H  
   1   2   2   2   2   2   1   1
Cartesian
  0.0000000000000000  0.0000000000000000  9.9999993250464474
  1.2686419102221438  2.3141188362369816  9.9999993250464474
  2.6390528132424116  0.0000000000000000  9.9999993250464474
  3.9076947234645552  2.3141188362369816  9.9999993250464474
  5.2781057174342667  3.1256699217117161 12.1671476389686699
  4.0094638072121231  0.8115510854747346 12.1671476389686699
  2.6390529041918551  3.1256699217117161 12.1671476389686699
  1.3704109939697111  0.8115510854747346 12.1671476389686699
  2.6471990728164823  1.5676559669415093 14.3012937329663625
  3.9754358459612962  3.8862011200977906 14.3276620103151089
  5.3187913500506268  1.6178491119347360 14.3276697242867126
  6.5485394383102955  3.8780779520552260 14.2898575388889544
  0.1556066718064041  0.0923865246449500 15.3326214644383274
