Mo Ag Mo Ag Mo Ag Mo  H 
 1.0000000000000000
     5.6708685986902045    0.0000000000000000    0.0000000000000000
     2.8354347993450668    4.9111166524554948    0.0000000000000000
     0.0000000000000000    0.0000000000000000   24.6302432569940173
 Mo  Ag  Mo  Ag  Mo  Ag  Mo  H  
   1   1   3   1   3   1   2   1
Cartesian
  0.0000000000000000  0.0000000000000000  9.9999991549686111
  1.4177173996725334  2.4555583262277474  9.9999991549686111
  2.8354342993451023  0.0000000000000000  9.9999991549686111
  4.2531516990176357  2.4555583262277474  9.9999991549686111
  5.6708689348589481  3.2740777699407020 12.3151216284970086
  4.2531515351864151  0.8185194437129546 12.3151216284970086
  2.8354346355138462  3.2740777699407020 12.3151216284970086
  1.4177172358413128  0.8185194437129546 12.3151216284970086
  2.7147159201822837  1.7066352055088536 14.5048960158233715
  4.2529683053284346  4.0924971742074465 14.9158827571937938
  5.7911368117018540  1.7065749117297113 14.5049740936944964
  7.0883967296711683  3.9534175575690811 14.5048497355962915
  4.2528058220411351  0.8186874235469352 15.5182799119111596
