Au Tl Au Tl Au Tl Au  H 
 1.0000000000000000
     6.5341305375998324    0.0000000000000000    0.0000000000000000
     1.9302398634029070    6.2425185582363083    0.0000000000000000
     0.0000000000000000    0.0000000000000000   25.2383512139601045
 Au  Tl  Au  Tl  Au  Tl  Au  H  
   1   2   2   2   2   2   1   1
Cartesian
  0.0000000000000000  0.0000000000000000  9.9999994843177564
  0.9651199317014535  3.1212592791181542  9.9999994843177564
  3.2670652687999162  0.0000000000000000  9.9999994843177564
  4.2321852005013696  3.1212592791181542  9.9999994843177564
  6.5341306926539851  4.8189564230319846 12.6191756069800523
  5.5690107609525317  1.6976971439138306 12.6191756069800523
  3.2670654238540693  4.8189564230319846 12.6191756069800523
  2.3019454921526159  1.6976971439138306 12.6191756069800523
  4.5761826969222890  3.1076871323648390 15.2700350219373568
  3.2273742954551254 -0.0287939664309042 15.2240585951527496
  1.4530820152807289  3.4818564721515513 15.3357822897206884
  0.0877195506515922  0.3333392732039697 15.2705831484490240
  5.6042351442282916  1.7219249452350902 15.7318980858320376
