Ir Pt Ir Pt Ir Pt Ir  H 
 1.0000000000000000
     5.5526006070596639    0.0000000000000000    0.0000000000000000
     2.7473778055765874    4.8252766585301252    0.0000000000000000
     0.0000000000000000    0.0000000000000000   24.5413242632865405
 Ir  Pt  Ir  Pt  Ir  Pt  Ir  H  
   1   2   2   2   2   2   1   1
Cartesian
  0.0000000000000000  0.0000000000000000  9.9999993938994098
  1.3736889027882937  2.4126383292650626  9.9999993938994098
  2.7763003035298319  0.0000000000000000  9.9999993938994098
  4.1499892063181258  2.4126383292650626  9.9999993938994098
  5.5526004832749223  3.2280606254709041 12.2706621316432702
  4.1789115804866288  0.8154222962058412 12.2706621316432702
  2.7763001797450908  3.2280606254709041 12.2706621316432702
  1.4026112769567969  0.8154222962058412 12.2706621316432702
  2.7424723246116751  1.5943079546237651 14.5220427999961164
  4.1140710700286167  3.9877821186062765 14.6109622022157168
  5.5011165663851687  1.6018596139251744 14.6112153214341678
  6.8836486608815575  4.0019140800660731 14.4529817710852058
  1.5631379338588469  0.9096904692217997 15.5941998551375089
