Re  N  H 
 1.0000000000000000
     5.0895099999999998    0.0000000000000000    0.0000000000000000
     1.6866984650000001    4.8298001519999998    0.0000000000000000
     0.0000000000000000    0.0000000000000000   27.7012999999999998
 Re  N   H  
   8  16   1
Cartesian
  5.4673499999999997  3.3100999999999998  2.5695700000000001
  3.7806899999999999  0.1860900000000000  0.2612200000000000
  2.2690299999999999  2.3270499999999998  0.0587300000000000
  2.2689800000000000  0.6212100000000000  2.3670800000000001
  1.9327900000000000  4.3915600000000001  7.3850699999999998
  5.4163699999999997  1.6385900000000000  4.7560599999999997
  3.9153099999999998  3.7754200000000000  4.6559100000000004
  3.8086000000000002  1.7749500000000000  7.4791800000000004
  6.0143399999999998  3.5864600000000002  4.5582500000000001
  4.3276899999999996  0.4625000000000000  2.2498999999999998
  3.4087100000000001  3.4688599999999998  2.6867500000000000
  1.7220000000000000  0.3448500000000000  0.3784000000000000
  5.3556600000000003  2.8984600000000000  0.4808900000000000
  5.3556299999999997  1.1926699999999999  2.7892399999999999
  2.3807100000000001  2.7386400000000002  2.1474000000000002
  2.3807299999999998  1.0328500000000000  4.4557500000000001
  2.3551000000000002  4.5949099999999996  9.0751299999999997
  0.7536100000000000  1.6020600000000000  6.8221999999999996
  5.0600600000000000  4.6181299999999998  7.2378499999999999
  3.4267599999999998  1.7803800000000001  4.8769999999999998
  1.9167099999999999  4.3532900000000003  5.1186699999999998
  1.8037500000000000  2.3721100000000002  7.2507500000000000
  3.9978300000000000  3.8542299999999998  6.8081699999999996
  3.9398399999999998  2.0352299999999999  9.1434700000000007
  0.8711800000000000  0.1767500000000000  9.9845299999999995
