Re  N Re  N  H 
 1.0000000000000000
     5.5853799999999998    0.0000000000000000    0.0000000000000000
     1.4576319424392254    5.4095059961960343    0.0000000000000000
     0.0000000000000000    0.0000000000000000   26.6293000000000006
 Re  N   Re  N   H  
   4   8   4   8   1
Cartesian
  2.3923315993273508  1.7022092518230061  3.8977306409999999
  0.9346887109734153  0.5438176377975873  1.6784447790000001
  3.7273589596081576  2.6607196192889817  0.5735951220000001
  5.1850018479620932  3.8191112333144002  2.7926146910000003
  2.4528137764727345  1.6547137891764050  1.6456907400000000
  3.9104566648266701  2.8131054032018237  3.8647103090000003
  1.1177522968881077  3.1569336043200438  3.6852288270000004
  5.2454894085341710  1.9985419902946249  1.4662092579999999
  3.5817067515913470  0.0158498525688544  3.7296997579999998
  3.5816958056766364  4.2669642347394703  1.5106801890000001
  0.7889769423232440  0.3944070821826529  3.5321103520000001
  6.3744018502085336  4.6455214643532683  1.3130907830000000
  5.3612022493591365  4.3672715934368691  8.3091190677663551
  3.8295400467577938  2.8925069206496370  6.2869814115522313
  6.6539734588597037  5.0203450808795678  5.0469405789133850
  1.0672979453287619  1.0309701051843996  7.3650684743918307
  5.3444105407055451  4.0588649969747603  6.1362175087144308
  6.8111777743965014  5.3717637144879573  8.3517858476371583
  2.5885064772354793  0.1962340226374412  8.2045911109109078
  2.5304593673421687  4.3391715003351425  5.9143313791688001
  0.8496302019789943  2.5542157055890611  8.1616868099547517
  5.1161012645465842  1.2303200811118158  6.0086768192673539
  3.7453955728015136  2.8487719459363605  8.0292928343985608
  2.3167301395670976  1.6436343501886010  5.7962490765000227
  5.1934879641305534  3.9287522811923932  9.9231996581405841
