Re  N  H 
 1.0000000000000000
     9.5357500000000002    0.0000000000000000    0.0000000000000000
     0.0000000000000000    5.0288700000000004    0.0000000000000000
     0.0000000000000000    0.0000000000000000   28.1466999999999992
 Re  N   H  
  16  32   1
Cartesian
  3.7319111199999888  4.8650294153999853  3.8144407839999892
  3.7319111199999888  1.4446434848999978  1.4686948059999971
  8.4997861199999889  0.8696424891000045  4.5231746899999576
  8.4997861199999889  2.4781265586000170  2.1774287119999665
  5.8038388800000114  3.3840774891000049  4.5231746899999576
  5.8038388800000114  4.9925615586000172  2.1774287119999665
  1.0359638800000115  2.3505944153999856  3.8144407839999892
  1.0359638800000115  3.9590784848999978  1.4686948059999971
  3.7866013027719125  1.7198367655838120  8.5127734504534711
  3.7531832638182729  3.1659289283160823  6.1681002335011614
  8.5630402763037772  2.7214463254242887  9.0764964977578675
  8.5048013559383406  4.1711947650248069  6.9352489889869027
  5.8431247643841386  0.2336063105278658  9.0123101203049778
  5.8416234378811902  1.6646829110037940  6.9395764562712845
  1.0438227945120695  4.2243188311663618  8.4922885844635410
  1.0431258901704463  0.6450265935652953  6.1593957770598813
  3.1124687999999963  3.4688642373000111  1.1326232079999212
  3.1124687999999963  1.8603801677999987  3.4780877190000226
  7.8803437999999959  2.0623898757000156  0.1680357989999381
  7.8803437999999959  0.4539058062000035  2.5135003100000421
  6.4232812000000044  2.9683408062000036  2.5135003100000421
  6.4232812000000044  4.5768248757000158  0.1680357989999381
  1.6554062000000038  4.3748151677999987  3.4780877190000226
  1.6554062000000038  0.9544292373000106  1.1326232079999212
  3.8615019624999949  2.8269792705000132  4.1409425040000283
  3.8615019624999949  4.4354633399999894  1.7954779929999238
  8.6293769624999950  2.9076926340000129  4.1963915030000312
  8.6293769624999950  4.5161767034999896  1.8506455250000364
  5.6742480375000053  0.3932576340000126  4.1963915030000312
  5.6742480375000053  2.0017417034999889  1.8506455250000364
  0.9063730375000048  0.3125442705000131  4.1409425040000283
  0.9063730375000048  1.9210283399999897  1.7954779929999238
  3.1241503927060581  0.1784027375127455  5.9020691722959935
  3.1627990517481761  3.7474605065257922  8.6022587682381424
  7.8956483521306540  3.8730306925051261  4.8772439439975299
  7.9235289823495778  2.1503677671190662  7.2059875381696985
  6.4606841714247834  4.6464563598348319  7.1943140535565933
  6.4108836331319505  1.3524521431223473  4.8860947019923762
  1.6806363219698985  1.2163354247336466  8.5960597199677924
  1.6783850670874974  2.6846958421961586  5.8917348956296820
  3.9614989285984183  4.7658627075329392  8.9530608689358022
  3.8731741767390901  1.1552375944212003  6.5483164874419666
  8.5957330966822010  4.7487639311389618  8.9466535479470775
  8.6407116340922840  1.1812475697562670  6.5365245199668491
  5.7973555199088835  2.2241113776283736  8.9612876250576541
  5.7072205853022888  3.6886313227834693  6.5313428166712493
  0.8765284057882827  2.2259964216015482  8.9139523266047114
  0.9368332720016191  3.6632296088774745  6.5309874731111970
  8.2329326004084731  2.7835187492141689 10.7518130522742563
