Re  N  H 
 1.0000000000000000
     5.5853799999999998    0.0000000000000000    0.0000000000000000
     1.4576319419999999    5.4095059960000000    0.0000000000000000
     0.0000000000000000    0.0000000000000000   26.6293000000000006
 Re  N   H  
   8  16   1
Cartesian
  2.3923299999999998  1.7022100000000000  3.8977300000000001
  0.9346900000000000  0.5438200000000000  1.6784399999999999
  3.7273600000000000  2.6607200000000000  0.5736000000000000
  5.1849999999999996  3.8191099999999998  2.7926099999999998
  5.4074700000000000  3.9591500000000002  8.0144800000000007
  3.7130100000000001  2.8035700000000001  6.1627599999999996
  6.6531500000000001  5.0416299999999996  4.9514600000000000
  1.0528999999999999  0.6617400000000000  7.3532200000000003
  2.4528099999999999  1.6547099999999999  1.6456900000000001
  3.9104600000000000  2.8131100000000000  3.8647100000000001
  1.1177500000000000  3.1569300000000000  3.6852299999999998
  5.2454900000000002  1.9985400000000000  1.4662100000000000
  3.5817100000000002  0.0158500000000000  3.7296999999999998
  3.5817000000000001  4.2669600000000001  1.5106800000000000
  0.7889800000000000  0.3944100000000000  3.5321099999999999
  6.3743999999999996  4.6455200000000003  1.3130900000000001
  5.4260599999999997  3.9709699999999999  6.1715400000000002
  6.8705800000000004  4.9829699999999999  8.3029799999999998
  2.7017300000000000  0.0939200000000000  8.2836300000000005
  2.5753900000000001  4.3507199999999999  5.9060600000000001
  0.7458300000000000  2.1969799999999999  8.1755499999999994
  5.0233900000000000  1.1604500000000000  5.9620899999999999
  3.7279499999999999  2.7222900000000001  7.9748400000000004
  2.2266599999999999  1.5552699999999999  5.8122699999999998
  3.1816599999999999  0.9399900000000000  8.6420600000000007
