Ir  N  H 
 1.0000000000000000
     5.9138299999999999    0.0000000000000000    0.0000000000000000
     0.0000000000000000    9.6572399999999998    0.0000000000000000
     0.0000000000000000    0.0000000000000000   33.4536999999999978
 Ir  N   H  
  16  48   1
Cartesian
  4.6778399999999998  4.8286199999999999  4.8675100000000002
  0.7352700000000000  0.0000000000000000  2.0798199999999998
  4.6778399999999998  7.2429300000000003  0.6858000000000000
  2.7065800000000002  2.4143100000000000  3.4735000000000000
  4.6778399999999998  2.4143100000000000  0.6858000000000000
  2.7065800000000002  7.2429300000000003  3.4735000000000000
  0.7352700000000000  4.8286199999999999  2.0798199999999998
  4.6778399999999998  0.0000000000000000  4.8675100000000002
  0.6593900000000000  4.7543800000000003 10.2599999999999998
  2.7146499999999998  9.6456300000000006  7.6559100000000004
  0.7387899999999999  7.2405900000000001  6.2663500000000001
  4.6736300000000002  2.3969900000000002  9.0781500000000008
  0.7245800000000000  2.3944800000000002  6.2541799999999999
  4.7327800000000000  7.2783600000000002  9.1483399999999993
  2.7020300000000002  4.8171200000000001  7.6738099999999996
  0.4758900000000000  0.1898900000000000 10.5340199999999999
  5.2692800000000002  5.8716999999999997  3.1948300000000001
  1.3267100000000001  1.0430800000000000  0.4071300000000000
  2.1151399999999998  3.7855400000000001  0.9644700000000000
  0.1438800000000000  8.6141600000000000  3.7524999999999999
  2.5725799999999999  1.9315400000000000  5.4696800000000003
  4.5438299999999998  6.7601599999999999  2.6819799999999998
  0.8692700000000000  7.7256999999999998  4.2653499999999998
  2.8405300000000002  2.8970799999999999  1.4776499999999999
  2.8405300000000002  5.2728500000000000  4.0535800000000002
  4.8118499999999997  0.4442300000000000  1.2658900000000000
  4.5438299999999998  4.3843899999999998  0.1057100000000000
  2.5725799999999999  9.2130100000000006  2.8937499999999998
  2.1151399999999998  4.3843899999999998  3.5407400000000000
  4.0864000000000003  9.2130100000000006  0.7527100000000000
  5.2692800000000002  5.2728500000000000  0.6188900000000001
  3.2980200000000002  0.4442300000000000  3.4065900000000000
  4.5438299999999998  3.3413100000000000  3.4514200000000002
  0.6013200000000000  8.1699300000000008  0.6633900000000000
  2.8405300000000002  6.3159299999999998  0.7082100000000000
  0.8692700000000000  1.4873099999999999  3.4959099999999999
  0.1438800000000000  1.4873099999999999  4.5219399999999998
  2.1151399999999998  6.3159299999999998  1.7339100000000001
  3.2980200000000002  8.1699300000000008  5.2134200000000002
  5.2692800000000002  3.3413100000000000  2.4253900000000002
  1.3161799999999999  5.8727000000000000  8.7763700000000000
  3.2924400000000000  1.0443700000000000  5.9769800000000002
  4.0727399999999996  3.7958500000000002  6.5380799999999999
  2.1878099999999998  8.5601900000000004  9.3775899999999996
  5.3157699999999997  1.8982300000000001 11.0035900000000009
  0.6152800000000000  6.7804200000000003  8.2802199999999999
  2.8758699999999999  7.7729799999999996  9.9456600000000002
  4.7618900000000002  2.8890699999999998  7.0542499999999997
  4.7293599999999998  5.2512800000000004  9.7609700000000004
  0.8762100000000000  0.4324700000000000  6.8528200000000004
  0.6086000000000000  4.3738000000000001  5.6857800000000003
  4.5704900000000004  9.1769900000000000  8.4726499999999998
  4.0041000000000002  4.3461800000000004  9.2591400000000004
  0.1468000000000000  9.2054200000000002  6.3376999999999999
  1.3369599999999999  5.2595900000000002  6.1944400000000002
  5.2283400000000002  0.4541300000000000  8.9746699999999997
  0.5955500000000000  3.2989199999999999  8.9729399999999995
  2.5718600000000000  8.1637900000000005  6.2293000000000003
  4.7996400000000001  6.3044099999999998  6.3153600000000001
  2.8341699999999999  1.4214400000000000  9.1713000000000005
  2.0759099999999999  1.3885700000000001 10.1149000000000004
  4.0914599999999997  6.2934200000000002  7.3522200000000000
  5.6368799999999997  8.1946200000000005 10.6796699999999998
  1.3488899999999999  3.3026200000000001  7.9784199999999998
  4.5893699999999997  1.7531399999999999 11.7165999999999997
