Ir  N Ir  N  H 
 1.0000000000000000
     5.9138299999999999    0.0000000000000000    0.0000000000000000
     0.0000000000000000    9.6572399999999998    0.0000000000000000
     0.0000000000000000    0.0000000000000000   33.4536999999999978
 Ir  N   Ir  N   H  
   8  24   8  24   1
Cartesian
  4.6778395300000000  4.8286199999999999  4.8675133499999994
  0.7352664838999999  0.0000000000000000  2.0798165289999999
  4.6778395300000000  7.2429299999999994  0.6858008500000000
  2.7065825761000002  2.4143100000000000  3.4734976710000001
  4.6778395300000000  2.4143100000000000  0.6858008500000000
  2.7065825761000002  7.2429299999999994  3.4734976710000001
  0.7352664838999999  4.8286199999999999  2.0798165289999999
  4.6778395300000000  0.0000000000000000  4.8675133499999994
  5.2692816682999997  5.8716984924000002  3.1948283499999999
  1.3267086222000000  1.0430784923999998  0.4071315290000000
  2.1151404378000001  3.7855415076000001  0.9644701710000000
  0.1438834839000000  8.6141615075999987  3.7525015289999999
  2.5725751883000001  1.9315445724000000  5.4696799499999997
  4.5438321422000003  6.7601645723999999  2.6819831289999998
  0.8692738717000000  7.7256954275999998  4.2653467500000000
  2.8405308256000001  2.8970754275999999  1.4776499290000000
  2.8405308256000001  5.2728530400000002  4.0535848290000001
  4.8118469178000005  0.4442330400000000  1.2658880079999999
  4.5438321422000003  4.3843869600000005  0.1057136920000000
  2.5725751883000001  9.2130069599999995  2.8937450499999997
  2.1151404378000001  4.3843869600000005  3.5407396080000000
  4.0863973917000003  9.2130069599999995  0.7527082500000000
  5.2692816682999997  5.2728530400000002  0.6188934500000000
  3.2980247143999999  0.4442330400000000  3.4065902709999998
  4.5438321422000003  3.3413084676000002  3.4514182289999997
  0.6013182344000000  8.1699284676000001  0.6633868709999999
  2.8405308256000001  6.3159315323999996  0.7082148290000000
  0.8692738717000000  1.4873115324000001  3.4959116499999996
  0.1438834839000000  1.4873115324000001  4.5219366289999998
  2.1151404378000001  6.3159315323999996  1.7339052710000000
  3.2980247143999999  8.1699284676000001  5.2134246079999995
  5.2692816682999997  3.3413084676000002  2.4253932499999995
  0.7181406975096258  4.7398800218887596 10.2527842212724192
  2.6974574334290748 -0.0131986743509871  7.6707028012374767
  0.7515425439226324  7.2416535153384141  6.2635339683578257
  4.6861327441586758  2.3761094265165972  9.0879148406516723
  0.7340539834934554  2.3913878014879932  6.2456795164143797
  4.7911670414819794  7.2766337710347093  9.1517219138182959
  2.7374879645472179  4.8176165272901832  7.6791679902062526
  0.3788763946527599  0.2518476812737341 10.8193667919082941
  1.3604617351158481  5.8740122021966403  8.7732367790046482
  3.2936886556669531  1.0485543072604848  5.9848429360474036
  4.0939294495696767  3.7949708205464359  6.5463629479868723
  2.2213108536652144  8.4927278092457570  9.3300271130912726
  5.4773825395550304  1.9445101332255648 10.8484599236188775
  0.6593793222114144  6.7778460532845042  8.2724025923785920
  2.9114257097747389  7.7138929203202355  9.8766820701771447
  4.7844102404628854  2.8807918497575482  7.0478263115182305
  4.7887157580473483  5.2431050667130537  9.7714270665549563
  0.8688873772375827  0.4318486686640529  6.8461912498098041
  0.6214740212440513  4.3767856205530897  5.6891398481060609
  4.5475358417126657  9.2042172948596601  8.4560576187415055
  4.0388205306424645  4.3580211649877576  9.2832544950327591
  0.1454973861808957  9.2058245592769996  6.3255975807127545
  1.3540714496784219  5.2592271783153715  6.1940877325845074
  5.2551156835010735  0.4425834791551760  8.9361075002776928
  0.6474220931528896  3.2898672510625495  8.9591189922285732
  2.5765366221294905  8.1666244990937411  6.2329939435445709
  4.8207045512206301  6.3124525861060832  6.3246760161649771
  2.8217952156756159  1.3792574618933189  9.2773501228715105
  2.2184359597301349  1.3927387388244590 10.3146173568395145
  4.1291582155944226  6.3035425626480217  7.3740880577462438
  5.7317860119361663  8.2120709520288671 10.6246579958651495
  1.3930411876880786  3.2862763949846627  7.9607904560103373
  0.8317820349002678  9.8623267292014880 12.3604495540585191
