Ir  N  H 
 1.0000000000000000
     5.9138299999999999    0.0000000000000000    0.0000000000000000
     0.0000000000000000    9.6572399999999998    0.0000000000000000
     0.0000000000000000    0.0000000000000000   33.4536999999999978
 Ir  N   H  
  16  48   1
Cartesian
  4.6778399999999998  4.8286199999999999  4.8675100000000002
  0.7352700000000000  0.0000000000000000  2.0798199999999998
  4.6778399999999998  7.2429300000000003  0.6858000000000000
  2.7065800000000002  2.4143100000000000  3.4735000000000000
  4.6778399999999998  2.4143100000000000  0.6858000000000000
  2.7065800000000002  7.2429300000000003  3.4735000000000000
  0.7352700000000000  4.8286199999999999  2.0798199999999998
  4.6778399999999998  0.0000000000000000  4.8675100000000002
  0.4311500000000000  4.4931999999999999 10.4262499999999996
  2.7404199999999999  0.0062500000000000  7.6795600000000004
  0.7314100000000000  7.2274099999999999  6.2752999999999997
  4.6411199999999999  2.4802900000000001  9.1243099999999995
  0.7216300000000000  2.3929600000000000  6.2434300000000000
  4.7381700000000002  7.2728700000000002  9.1343499999999995
  2.6808000000000001  4.8393699999999997  7.6436099999999998
  0.6407000000000000  9.5665099999999992 10.5742799999999999
  5.2692800000000002  5.8716999999999997  3.1948300000000001
  1.3267100000000001  1.0430800000000000  0.4071300000000000
  2.1151399999999998  3.7855400000000001  0.9644700000000000
  0.1438800000000000  8.6141600000000000  3.7524999999999999
  2.5725799999999999  1.9315400000000000  5.4696800000000003
  4.5438299999999998  6.7601599999999999  2.6819799999999998
  0.8692700000000000  7.7256999999999998  4.2653499999999998
  2.8405300000000002  2.8970799999999999  1.4776499999999999
  2.8405300000000002  5.2728500000000000  4.0535800000000002
  4.8118499999999997  0.4442300000000000  1.2658900000000000
  4.5438299999999998  4.3843899999999998  0.1057100000000000
  2.5725799999999999  9.2130100000000006  2.8937499999999998
  2.1151399999999998  4.3843899999999998  3.5407400000000000
  4.0864000000000003  9.2130100000000006  0.7527100000000000
  5.2692800000000002  5.2728500000000000  0.6188900000000001
  3.2980200000000002  0.4442300000000000  3.4065900000000000
  4.5438299999999998  3.3413100000000000  3.4514200000000002
  0.6013200000000000  8.1699300000000008  0.6633900000000000
  2.8405300000000002  6.3159299999999998  0.7082100000000000
  0.8692700000000000  1.4873099999999999  3.4959099999999999
  0.1438800000000000  1.4873099999999999  4.5219399999999998
  2.1151399999999998  6.3159299999999998  1.7339100000000001
  3.2980200000000002  8.1699300000000008  5.2134200000000002
  5.2692800000000002  3.3413100000000000  2.4253900000000002
  1.3446000000000000  5.8737500000000002  8.8492700000000006
  3.2984200000000001  1.0550999999999999  5.9792100000000001
  4.0704700000000003  3.7705799999999998  6.5156299999999998
  2.2059099999999998  8.5577799999999993  9.3399500000000000
  5.3719099999999997  2.9694600000000002 11.0009099999999993
  0.6357800000000000  6.7254199999999997  8.2800799999999999
  2.8866900000000002  7.7467699999999997  9.9025499999999997
  4.7348900000000000  2.8315800000000002  7.0088299999999997
  4.6991600000000000  5.2816999999999998  9.6636600000000001
  0.8821400000000000  0.4300500000000000  6.8624200000000002
  0.5927800000000000  4.3750999999999998  5.6715200000000001
  4.5948700000000002  9.2465600000000006  8.5900599999999994
  3.9684200000000001  4.3999100000000002  9.1379099999999998
  0.1456500000000000  9.2023799999999998  6.3604599999999998
  1.3169299999999999  5.2637700000000001  6.1847399999999997
  5.2180499999999999  0.4918800000000000  9.2062100000000004
  0.5712100000000000  3.2937699999999999  8.9061100000000000
  2.5819100000000001  8.1656600000000008  6.2364899999999999
  4.8021700000000003  6.3093100000000000  6.2997600000000000
  2.8012999999999999  1.4551300000000000  9.2464800000000000
  2.0441199999999999  1.3160200000000000 10.1762599999999992
  4.0749300000000002  6.3286499999999997  7.3207599999999999
  5.6987800000000002  7.9657600000000004 10.6775400000000005
  1.3481099999999999  3.3278599999999998  7.9464600000000001
  5.7769599999999999  0.8653200000000000 11.6127000000000002
