Ti Pb Ti Pb Ti Pb Ti  H 
 1.0000000000000000
     6.1700935633616005    0.0000000000000000    0.0000000000000000
     2.7810328031949272    5.5078046102297380    0.0000000000000000
     0.0000000000000000    0.0000000000000000   25.0977632239090802
 Ti  Pb  Ti  Pb  Ti  Pb  Ti  H  
   1   2   2   2   2   2   1   1
Cartesian
  0.0000000000000000  0.0000000000000000  9.9999992599918244
  1.3905164015974636  2.7539023051148690  9.9999992599918244
  3.0850467816808003  0.0000000000000000  9.9999992599918244
  4.4755631832782639  2.7539023051148690  9.9999992599918244
  6.1700935131495758  3.7965802409230482 12.5488816119545401
  4.7795771115521122  1.0426779358081790 12.5488816119545401
  3.0850467314687746  3.7965802409230482 12.5488816119545401
  1.6945303298713110  1.0426779358081790 12.5488816119545401
  3.0871805054606547  1.8997157027748872 14.9960421021266725
  4.5560185490560166  4.6927531297204554 15.3886322069042976
  6.2424412637592912  1.9515887298354690 15.3883794975263957
  7.5621194392761790  4.6528164570848292 14.8311280881803995
  2.5919575369997889  1.5957520449518185 16.6627738410815773
