Ir  N Ir  N  H 
 1.0000000000000000
     5.9138299999999999    0.0000000000000000    0.0000000000000000
     0.0000000000000000    9.6572399999999998    0.0000000000000000
     0.0000000000000000    0.0000000000000000   33.4536999999999978
 Ir  N   Ir  N   H  
   8  24   8  24   1
Cartesian
  4.6778395300000000  4.8286199999999999  4.8675133499999994
  0.7352664838999999  0.0000000000000000  2.0798165289999999
  4.6778395300000000  7.2429299999999994  0.6858008500000000
  2.7065825761000002  2.4143100000000000  3.4734976710000001
  4.6778395300000000  2.4143100000000000  0.6858008500000000
  2.7065825761000002  7.2429299999999994  3.4734976710000001
  0.7352664838999999  4.8286199999999999  2.0798165289999999
  4.6778395300000000  0.0000000000000000  4.8675133499999994
  5.2692816682999997  5.8716984924000002  3.1948283499999999
  1.3267086222000000  1.0430784923999998  0.4071315290000000
  2.1151404378000001  3.7855415076000001  0.9644701710000000
  0.1438834839000000  8.6141615075999987  3.7525015289999999
  2.5725751883000001  1.9315445724000000  5.4696799499999997
  4.5438321422000003  6.7601645723999999  2.6819831289999998
  0.8692738717000000  7.7256954275999998  4.2653467500000000
  2.8405308256000001  2.8970754275999999  1.4776499290000000
  2.8405308256000001  5.2728530400000002  4.0535848290000001
  4.8118469178000005  0.4442330400000000  1.2658880079999999
  4.5438321422000003  4.3843869600000005  0.1057136920000000
  2.5725751883000001  9.2130069599999995  2.8937450499999997
  2.1151404378000001  4.3843869600000005  3.5407396080000000
  4.0863973917000003  9.2130069599999995  0.7527082500000000
  5.2692816682999997  5.2728530400000002  0.6188934500000000
  3.2980247143999999  0.4442330400000000  3.4065902709999998
  4.5438321422000003  3.3413084676000002  3.4514182289999997
  0.6013182344000000  8.1699284676000001  0.6633868709999999
  2.8405308256000001  6.3159315323999996  0.7082148290000000
  0.8692738717000000  1.4873115324000001  3.4959116499999996
  0.1438834839000000  1.4873115324000001  4.5219366289999998
  2.1151404378000001  6.3159315323999996  1.7339052710000000
  3.2980247143999999  8.1699284676000001  5.2134246079999995
  5.2692816682999997  3.3413084676000002  2.4253932499999995
  0.6841047119322109  4.7338208690279284 10.2479619195341645
  2.6829668527134665 -0.0111729147257023  7.6678575879323869
  0.7445046947624685  7.2456695303047400  6.2637618670771760
  4.6649767885813498  2.3732998496262110  9.0803744781934181
  0.7288979280398118  2.3955407079747664  6.2422988652879194
  4.7626445750409827  7.2764287279162279  9.1473281578423453
  2.7220619973850626  4.8218580193687135  7.6740812878368452
  0.3583743765696797  0.2492100798162760 10.8109860187988289
  1.3356060133806618  5.8712558312453442  8.7722926897137512
  3.2923770690728356  1.0488817292837120  5.9852501514717842
  4.0861228244342085  3.8004572201588465  6.5423977845746881
  2.1963641689882620  8.4995413485429641  9.3296405969885754
  5.4587478566479914  1.9474304863289591 10.8399014252596952
  0.6381870129177504  6.7782520104888508  8.2729084708226051
  2.8845695412120604  7.7185830795882913  9.8769995805534432
  4.7751990889384697  2.8855113852482432  7.0438887105748487
  4.7596456847097564  5.2435912323793135  9.7644463822659731
  0.8593492707068746  0.4375471895771736  6.8447714811899143
  0.6188327290035752  4.3804076515216632  5.6828285602507691
  4.5303611063150182  9.2021129822429728  8.4507986911642359
  4.0121680887820261  4.3554679464374688  9.2783976981817702
  0.1389280268528747  9.2089895807436140  6.3243914448262775
  1.3468277729448577  5.2652236583418066  6.1908034009520128
  5.2383938120367342  0.4412359972804699  8.9288731878576311
  0.6287319205510913  3.2879150046800301  8.9521590854596766
  2.5696869106457414  8.1703897542616257  6.2290921568360318
  4.8131728981481414  6.3145781435914214  6.3211195199161931
  2.7998453599961368  1.3781075267162497  9.2714815122891778
  2.1937912716692174  1.3909785058542523 10.3078627095144952
  4.1153098546755054  6.3041952418225513  7.3664507762265563
  5.6940695668726455  8.2139323680479706 10.6259424333395387
  1.3788389411294717  3.2928031976550591  7.9574810301922838
  0.8025659978049058  0.2070212883758809 12.3552723054127274
