Ir  N  H 
 1.0000000000000000
     5.9138299999999999    0.0000000000000000    0.0000000000000000
     0.0000000000000000    9.6572399999999998    0.0000000000000000
     0.0000000000000000    0.0000000000000000   33.4536999999999978
 Ir  N   H  
  16  48   1
Cartesian
  4.6778399999999998  4.8286199999999999  4.8675100000000002
  0.7352700000000000  0.0000000000000000  2.0798199999999998
  4.6778399999999998  7.2429300000000003  0.6858000000000000
  2.7065800000000002  2.4143100000000000  3.4735000000000000
  4.6778399999999998  2.4143100000000000  0.6858000000000000
  2.7065800000000002  7.2429300000000003  3.4735000000000000
  0.7352700000000000  4.8286199999999999  2.0798199999999998
  4.6778399999999998  0.0000000000000000  4.8675100000000002
  0.7684600000000000  4.6748799999999999 10.3195200000000007
  2.6968299999999998  9.6563999999999997  7.6480899999999998
  0.7436300000000000  7.2323800000000000  6.2721700000000000
  4.6522500000000004  2.4014199999999999  9.0898699999999995
  0.7258000000000000  2.3979699999999999  6.2465400000000004
  4.7218400000000003  7.2333600000000002  9.1394699999999993
  2.7272599999999998  4.8072900000000001  7.6635299999999997
  0.3889500000000000  0.2331900000000000 10.6038599999999992
  5.2692800000000002  5.8716999999999997  3.1948300000000001
  1.3267100000000001  1.0430800000000000  0.4071300000000000
  2.1151399999999998  3.7855400000000001  0.9644700000000000
  0.1438800000000000  8.6141600000000000  3.7524999999999999
  2.5725799999999999  1.9315400000000000  5.4696800000000003
  4.5438299999999998  6.7601599999999999  2.6819799999999998
  0.8692700000000000  7.7256999999999998  4.2653499999999998
  2.8405300000000002  2.8970799999999999  1.4776499999999999
  2.8405300000000002  5.2728500000000000  4.0535800000000002
  4.8118499999999997  0.4442300000000000  1.2658900000000000
  4.5438299999999998  4.3843899999999998  0.1057100000000000
  2.5725799999999999  9.2130100000000006  2.8937499999999998
  2.1151399999999998  4.3843899999999998  3.5407400000000000
  4.0864000000000003  9.2130100000000006  0.7527100000000000
  5.2692800000000002  5.2728500000000000  0.6188900000000001
  3.2980200000000002  0.4442300000000000  3.4065900000000000
  4.5438299999999998  3.3413100000000000  3.4514200000000002
  0.6013200000000000  8.1699300000000008  0.6633900000000000
  2.8405300000000002  6.3159299999999998  0.7082100000000000
  0.8692700000000000  1.4873099999999999  3.4959099999999999
  0.1438800000000000  1.4873099999999999  4.5219399999999998
  2.1151399999999998  6.3159299999999998  1.7339100000000001
  3.2980200000000002  8.1699300000000008  5.2134200000000002
  5.2692800000000002  3.3413100000000000  2.4253900000000002
  1.3391900000000001  5.8259800000000004  8.8053399999999993
  3.2949000000000002  1.0491100000000000  5.9781100000000000
  4.0863300000000002  3.7911299999999999  6.5314899999999998
  2.1860900000000001  8.5376600000000007  9.3337500000000002
  5.4710900000000002  1.9300900000000001 10.8531399999999998
  0.6253200000000000  6.7213000000000003  8.3025000000000002
  2.8552700000000000  7.7381900000000003  9.8877199999999998
  4.7805000000000000  2.8841399999999999  7.0387199999999996
  4.7518599999999998  5.2491300000000001  9.7292799999999993
  0.8681400000000000  0.4362200000000000  6.8495799999999996
  0.6032999999999999  4.3806700000000003  5.6799600000000003
  4.5630400000000000  9.1629100000000001  8.4529099999999993
  4.0241499999999997  4.3747299999999996  9.2071799999999993
  0.1434400000000000  9.2023399999999995  6.3407200000000001
  1.3370500000000001  5.2614700000000001  6.1878200000000003
  5.2004200000000003  0.4392700000000000  8.9648500000000002
  0.6180099999999999  3.3197500000000000  8.9611599999999996
  2.5737199999999998  8.1627200000000002  6.2316099999999999
  4.8113900000000003  6.3109000000000002  6.3110900000000001
  2.8108200000000001  1.4112400000000000  9.2310499999999998
  2.1509900000000002  1.3597399999999999 10.2365899999999996
  4.1055299999999999  6.2916800000000004  7.3494799999999998
  5.6455399999999996  8.1967999999999996 10.6006400000000003
  1.3655200000000001  3.3032400000000002  7.9663800000000000
  2.2689800000000000  4.2779900000000000 10.7625200000000003
