Ir  N Ir  N  H 
 1.0000000000000000
     5.9138299999999999    0.0000000000000000    0.0000000000000000
     0.0000000000000000    9.6572399999999998    0.0000000000000000
     0.0000000000000000    0.0000000000000000   33.4536999999999978
 Ir  N   Ir  N   H  
   8  24   8  24   1
Cartesian
  4.5871805161000001  4.8286199999999999  4.6109234709999996
  0.6446074700000000  0.0000000000000000  1.8232266499999998
  4.5871805161000001  7.2429299999999994  0.4292109709999999
  2.6158644239000002  2.4143100000000000  3.2172423289999998
  4.5871805161000001  2.4143100000000000  0.4292109709999999
  2.6158644239000002  7.2429299999999994  3.2172423289999998
  0.6446074700000000  4.8286199999999999  1.8232266499999998
  4.5871805161000001  0.0000000000000000  4.6109234709999996
  5.1786226543999998  5.8716984924000002  2.9382384710000000
  1.2360496083000001  1.0430784923999998  0.1505416500000000
  2.0244814239000002  3.7855415076000001  0.7082148290000000
  0.0531653317000000  8.6141615075999987  3.4959116499999996
  2.4819161743999998  1.9315445724000000  5.2134246079999995
  4.4531731282999996  6.7601645723999999  2.4253932499999995
  0.7786148577999999  7.7256954275999998  4.0087568710000001
  2.7498718116999998  2.8970754275999999  1.2210600500000000
  2.7498718116999998  5.2728530400000002  3.7969949499999998
  4.7211287656000005  0.4442330400000000  1.0092981289999998
  0.5106000822000000  4.3843869600000005  5.4251865290000003
  2.4819161743999998  9.2130069599999995  2.6371551709999999
  2.0244814239000002  4.3843869600000005  3.2841497289999997
  3.9957383778000000  9.2130069599999995  0.4964529080000000
  5.1786226543999998  5.2728530400000002  0.3623035709999999
  3.2073065622000003  0.4442330400000000  3.1500003919999995
  4.4531731282999996  3.3413084676000002  3.1948283499999999
  0.5106000822000000  8.1699284676000001  0.4071315290000000
  2.7498718116999998  6.3159315323999996  0.4516249500000000
  0.7786148577999999  1.4873115324000001  3.2393217709999997
  0.0531653317000000  1.4873115324000001  4.2653467500000000
  2.0244814239000002  6.3159315323999996  1.4776499290000000
  3.2073065622000003  8.1699284676000001  4.9568347289999997
  5.1786226543999998  3.3413084676000002  2.1691379079999997
  0.7204288014840942  4.8377991622297705 10.2125630473015470
  2.6193854209626379 -0.0019208268113259  7.3993007096888856
  0.6467533870575091  7.2403748669862651  6.0078164644761056
  4.6076106474525389  2.4121154894495382  8.8266862034638560
  0.6474955364907413  2.4102856864388711  6.0027717824436317
  4.6239023714619432  7.2576276051015718  8.8500349026500373
  2.6250666871105266  4.8256254832115246  7.4151317051853063
  0.3846947178328581  0.1816192145802323 10.2516775017546102
  1.2363464222471361  5.8668120654801008  8.5105424515001165
  3.2026994533393776  1.0424830947972992  5.7220062641465459
  3.9943696974195260  3.7932488636574409  6.2884375279495472
  2.0195671636086776  8.6327541882959995  9.0621721786076588
  5.4291829051357450  1.8044501351576054 10.5693881825557519
  0.5242221684499788  6.7823398050013708  8.0084439746846225
  2.7725326028520247  7.7729232458280775  9.5834589175477536
  4.7108233473020142  2.9050589733487771  6.7953212467418256
  4.6899033486277801  5.2747718229571134  9.4995512590886406
  0.7831342737320768  0.4435031842611312  6.5918149875883403
  1.4570273887592236  4.8702396797071037 11.7247688997271489
  4.4758970731877179  9.1756689286397179  8.1625146713213237
  3.9627275304788601  4.3811645323420425  8.9950241909937194
  0.0611386857058937  9.2124226809150187  6.0748065644964608
  1.2449719161429060  5.2664236151676374  5.9362736623630168
  5.1519340766628456  0.4449440698741960  8.6378938644358936
  0.5227105151183635  3.3765140213162170  8.7301812372497469
  2.4795083962568008  8.1593303194598814  5.9708752423461995
  4.7184856226117464  6.3187668324837292  6.0424256471940581
  2.7596677041180802  1.4430382039629630  8.9201060747931784
  2.0913208366666654  1.4125705488331899  9.9181126611335628
  4.0136449592851395  6.3072248275242995  7.0789728672798908
  5.5274089548011673  8.1828935504984361 10.3428871690200079
  1.2606254723898274  3.3292008142912266  7.7243373785943126
  2.4029229600063347  7.3482370772228505 10.4539205769296721
