Ir  N  H 
 1.0000000000000000
     5.9138299999999999    0.0000000000000000    0.0000000000000000
     0.0000000000000000    9.6572399999999998    0.0000000000000000
     0.0000000000000000    0.0000000000000000   33.4536999999999978
 Ir  N   H  
  16  48   1
Cartesian
  4.5871800000000000  4.8286199999999999  4.6109200000000001
  0.6446100000000000  0.0000000000000000  1.8232299999999999
  4.5871800000000000  7.2429300000000003  0.4292100000000000
  2.6158600000000001  2.4143100000000000  3.2172399999999999
  4.5871800000000000  2.4143100000000000  0.4292100000000000
  2.6158600000000001  7.2429300000000003  3.2172399999999999
  0.6446100000000000  4.8286199999999999  1.8232299999999999
  4.5871800000000000  0.0000000000000000  4.6109200000000001
  0.7600900000000000  4.7438200000000004 10.3143899999999995
  2.6030099999999998  0.0064300000000000  7.3837900000000003
  0.6455600000000000  7.2360800000000003  6.0093699999999997
  4.5639000000000003  2.4264100000000002  8.8418600000000005
  0.6381200000000000  2.4092199999999999  6.0029599999999999
  4.6628900000000000  7.2427900000000003  8.8708600000000004
  2.6215899999999999  4.8238899999999996  7.4205300000000003
  0.2420100000000000  0.2462700000000000 10.3787400000000005
  5.1786199999999996  5.8716999999999997  2.9382400000000000
  1.2360500000000001  1.0430800000000000  0.1505400000000000
  2.0244800000000001  3.7855400000000001  0.7082100000000000
  0.0531700000000000  8.6141600000000000  3.4959099999999999
  2.4819200000000001  1.9315400000000000  5.2134200000000002
  4.4531700000000001  6.7601599999999999  2.4253900000000002
  0.7786100000000000  7.7256999999999998  4.0087599999999997
  2.7498700000000000  2.8970799999999999  1.2210600000000000
  2.7498700000000000  5.2728500000000000  3.7969900000000001
  4.7211299999999996  0.4442300000000000  1.0093000000000001
  0.5106000000000001  4.3843899999999998  5.4251899999999997
  2.4819200000000001  9.2130100000000006  2.6371600000000002
  2.0244800000000001  4.3843899999999998  3.2841499999999999
  3.9957400000000001  9.2130100000000006  0.4964500000000000
  5.1786199999999996  5.2728500000000000  0.3623000000000000
  3.2073100000000001  0.4442300000000000  3.1499999999999999
  4.4531700000000001  3.3413100000000000  3.1948300000000001
  0.5106000000000001  8.1699300000000008  0.4071300000000000
  2.7498700000000000  6.3159299999999998  0.4516200000000000
  0.7786100000000000  1.4873099999999999  3.2393200000000002
  0.0531700000000000  1.4873099999999999  4.2653499999999998
  2.0244800000000001  6.3159299999999998  1.4776499999999999
  3.2073100000000001  8.1699300000000008  4.9568300000000001
  5.1786199999999996  3.3413100000000000  2.1691400000000001
  1.2585000000000000  5.8682999999999996  8.5264299999999995
  3.2059899999999999  1.0493399999999999  5.7168799999999997
  3.9901200000000001  3.7904200000000001  6.2851800000000004
  2.1208999999999998  8.5379100000000001  9.0703099999999992
  5.2579900000000004  1.8638900000000000 10.6354399999999991
  0.5408900000000000  6.7360800000000003  8.0030599999999996
  2.7914800000000000  7.7486699999999997  9.6167499999999997
  4.7017199999999999  2.9016500000000001  6.7986100000000000
  4.7138499999999999  5.2643899999999997  9.4747800000000009
  0.7736000000000000  0.4431600000000000  6.5949000000000000
  1.8853899999999999  5.1589200000000002 11.5028900000000007
  4.4785800000000000  9.1777099999999994  8.1828199999999995
  3.9613399999999999  4.3960100000000004  8.9837600000000002
  0.0504200000000000  9.2090999999999994  6.0836699999999997
  1.2455200000000000  5.2642199999999999  5.9370700000000003
  5.1062799999999999  0.4569200000000000  8.7006399999999999
  0.4993300000000000  3.3946700000000001  8.7285400000000006
  2.4770799999999999  8.1686300000000003  5.9689899999999998
  4.7170300000000003  6.3136900000000002  6.0504100000000003
  2.6880700000000002  1.4153100000000001  8.9797200000000004
  2.0194600000000000  1.3963900000000000  9.9764800000000005
  4.0200600000000000  6.3026700000000000  7.0915400000000002
  5.6026800000000003  8.1817799999999998 10.3083600000000004
  1.2419100000000001  3.3291900000000001  7.7311100000000001
  0.0081200000000000  3.5917900000000000 11.1833399999999994
