Ir  N Ir  N  H 
 1.0000000000000000
     5.9138299999999999    0.0000000000000000    0.0000000000000000
     0.0000000000000000    9.6572399999999998    0.0000000000000000
     0.0000000000000000    0.0000000000000000   33.4536999999999978
 Ir  N   Ir  N   H  
   8  24   8  24   1
Cartesian
  4.5871805161000001  4.8286199999999999  4.6109234709999996
  0.6446074700000000  0.0000000000000000  1.8232266499999998
  4.5871805161000001  7.2429299999999994  0.4292109709999999
  2.6158644239000002  2.4143100000000000  3.2172423289999998
  4.5871805161000001  2.4143100000000000  0.4292109709999999
  2.6158644239000002  7.2429299999999994  3.2172423289999998
  0.6446074700000000  4.8286199999999999  1.8232266499999998
  4.5871805161000001  0.0000000000000000  4.6109234709999996
  5.1786226543999998  5.8716984924000002  2.9382384710000000
  1.2360496083000001  1.0430784923999998  0.1505416500000000
  2.0244814239000002  3.7855415076000001  0.7082148290000000
  0.0531653317000000  8.6141615075999987  3.4959116499999996
  2.4819161743999998  1.9315445724000000  5.2134246079999995
  4.4531731282999996  6.7601645723999999  2.4253932499999995
  0.7786148577999999  7.7256954275999998  4.0087568710000001
  2.7498718116999998  2.8970754275999999  1.2210600500000000
  2.7498718116999998  5.2728530400000002  3.7969949499999998
  4.7211287656000005  0.4442330400000000  1.0092981289999998
  0.5106000822000000  4.3843869600000005  5.4251865290000003
  2.4819161743999998  9.2130069599999995  2.6371551709999999
  2.0244814239000002  4.3843869600000005  3.2841497289999997
  3.9957383778000000  9.2130069599999995  0.4964529080000000
  5.1786226543999998  5.2728530400000002  0.3623035709999999
  3.2073065622000003  0.4442330400000000  3.1500003919999995
  4.4531731282999996  3.3413084676000002  3.1948283499999999
  0.5106000822000000  8.1699284676000001  0.4071315290000000
  2.7498718116999998  6.3159315323999996  0.4516249500000000
  0.7786148577999999  1.4873115324000001  3.2393217709999997
  0.0531653317000000  1.4873115324000001  4.2653467500000000
  2.0244814239000002  6.3159315323999996  1.4776499290000000
  3.2073065622000003  8.1699284676000001  4.9568347289999997
  5.1786226543999998  3.3413084676000002  2.1691379079999997
  0.7415149074335561  4.8615105081627483 10.3355068055086843
  2.6034389147218704  0.0020939656307369  7.3825500521156844
  0.6487083896005184  7.2413950432500478  6.0040330751303594
  4.5779208455322546  2.4188864065166320  8.8414577509883170
  0.6379391671660547  2.4137049404425510  6.0055989379204098
  4.6761795576212055  7.2378877148497764  8.8719700127507455
  2.6229033679364240  4.8154333888037586  7.4225335717587395
  0.2463339302207528  0.2512874790946991 10.3844126073788985
  1.2244642932405103  5.8404461413131381  8.5061499177521718
  3.2064588097027538  1.0501071318773811  5.7184458407025049
  3.9961788567613574  3.7944847101981503  6.2880828665146620
  2.1210862640933659  8.5157780792707243  9.0729801750338002
  5.2872010814790338  1.8754052719185130 10.6175784699993425
  0.5467368309197571  6.7508604787459712  7.9966245269157632
  2.8008520849763721  7.7304253604552287  9.6119528051086718
  4.7069378706294192  2.9032857512974468  6.7990586202603103
  4.7266256974691272  5.2493722653555306  9.4794097696099584
  0.7727634437341461  0.4428012650953250  6.5985344388788016
  1.5997599899512420  4.0542303146092378 11.5416968271776792
  4.4824409587788177  9.1655279913084247  8.1827388867218005
  3.9694614221745850  4.3834236381703455  8.9934366465765052
  0.0505030911973006  9.2097364376821282  6.0827331344076558
  1.2497597403751832  5.2640689704577062  5.9328883830609653
  5.1121212759516128  0.4438555643813195  8.6997133880825395
  0.5222270884878131  3.3384800203019940  8.7554094066398989
  2.4769463907470173  8.1691697859676555  5.9684794127646583
  4.7198505639609722  6.3128693300395593  6.0518632243906954
  2.6982954245788857  1.3995283911524721  8.9914193147239878
  2.0386142688904187  1.3646129474699114  9.9909329245964660
  4.0240314873971972  6.2945380521718182  7.0951843804481110
  5.5977996091742526  8.1864588908533555 10.3249431964513452
  1.2331421503818556  3.3306926762926028  7.7401156169904546
  0.5742312847260206  6.2447417891970263 11.1359974259741552
