Ir  N Ir  N  H 
 1.0000000000000000
     5.9138299999999999    0.0000000000000000    0.0000000000000000
     0.0000000000000000    9.6572399999999998    0.0000000000000000
     0.0000000000000000    0.0000000000000000   33.4536999999999978
 Ir  N   Ir  N   H  
   8  24   8  24   1
Cartesian
  4.5871805161000001  4.8286199999999999  4.6109234709999996
  0.6446074700000000  0.0000000000000000  1.8232266499999998
  4.5871805161000001  7.2429299999999994  0.4292109709999999
  2.6158644239000002  2.4143100000000000  3.2172423289999998
  4.5871805161000001  2.4143100000000000  0.4292109709999999
  2.6158644239000002  7.2429299999999994  3.2172423289999998
  0.6446074700000000  4.8286199999999999  1.8232266499999998
  4.5871805161000001  0.0000000000000000  4.6109234709999996
  5.1786226543999998  5.8716984924000002  2.9382384710000000
  1.2360496083000001  1.0430784923999998  0.1505416500000000
  2.0244814239000002  3.7855415076000001  0.7082148290000000
  0.0531653317000000  8.6141615075999987  3.4959116499999996
  2.4819161743999998  1.9315445724000000  5.2134246079999995
  4.4531731282999996  6.7601645723999999  2.4253932499999995
  0.7786148577999999  7.7256954275999998  4.0087568710000001
  2.7498718116999998  2.8970754275999999  1.2210600500000000
  2.7498718116999998  5.2728530400000002  3.7969949499999998
  4.7211287656000005  0.4442330400000000  1.0092981289999998
  0.5106000822000000  4.3843869600000005  5.4251865290000003
  2.4819161743999998  9.2130069599999995  2.6371551709999999
  2.0244814239000002  4.3843869600000005  3.2841497289999997
  3.9957383778000000  9.2130069599999995  0.4964529080000000
  5.1786226543999998  5.2728530400000002  0.3623035709999999
  3.2073065622000003  0.4442330400000000  3.1500003919999995
  4.4531731282999996  3.3413084676000002  3.1948283499999999
  0.5106000822000000  8.1699284676000001  0.4071315290000000
  2.7498718116999998  6.3159315323999996  0.4516249500000000
  0.7786148577999999  1.4873115324000001  3.2393217709999997
  0.0531653317000000  1.4873115324000001  4.2653467500000000
  2.0244814239000002  6.3159315323999996  1.4776499290000000
  3.2073065622000003  8.1699284676000001  4.9568347289999997
  5.1786226543999998  3.3413084676000002  2.1691379079999997
  0.6923495405506495  4.7943979597906852 10.2240759769885408
  2.6174459070691367 -0.0038397274143649  7.3780767940655814
  0.6435245976125706  7.2361997969275516  6.0139011880050521
  4.5945949764767731  2.4119411544124136  8.8259482246314853
  0.6338712448485628  2.4083640430741071  6.0078437721258640
  4.6560344623910872  7.2566911892723365  8.8726371742343169
  2.6152369805269640  4.8181228662275144  7.4150347117034165
  0.3267634954149869  0.1886683066117172 10.3135422560376782
  1.2346340489700258  5.8552808275144947  8.5227936004683063
  3.2021992852741517  1.0445191930176578  5.7139555453118538
  3.9850177011529935  3.7899353169680694  6.2794264410829284
  2.0962477148680843  8.5296049313733207  9.0967037763476686
  5.1682825471758811  1.8572088688075492 10.7249299977343941
  0.5357169121291102  6.7660117645628803  8.0154240085510295
  2.7847128941124231  7.7478367599355122  9.6391783580978974
  4.6890269291478361  2.8998416064765458  6.8060506545378567
  4.6767112000546520  5.2676872171126137  9.4957936364187372
  0.7798022310684420  0.4388683636970539  6.5930141912929532
  1.3899686219843674  4.7632265261707483 11.7490300475196925
  4.4884502602156813  9.1777771017709249  8.1891163876892925
  3.9574191637416036  4.3790423843009290  8.9750421347977465
  0.0528668980220857  9.2084112475935065  6.0832367704882717
  1.2429178686330427  5.2641324703205212  5.9379580843784332
  5.1267506169980699  0.4545924277205374  8.7041309833890370
  0.4984169105871921  3.3333845310064114  8.7448679948619219
  2.4780369230085011  8.1658690749846148  5.9680214157273701
  4.7154744615554254  6.3062186415787007  6.0555233772745565
  2.7066635844754692  1.4110538538250852  8.9395410256181336
  1.9478826991160305  1.3434867782993631  9.8710493087162998
  4.0093742532174899  6.2954336324006634  7.0911949332685751
  5.5048029550195734  8.1947149955046772 10.4009863040951096
  1.2362522813829344  3.3146372842807073  7.7339948757655392
  4.4845760455246966  1.8119536638921592 11.4900927769902097
