Re  N  H 
 1.0000000000000000
     9.5357500000000002    0.0000000000000000    0.0000000000000000
     0.0000000000000000    5.0288700000000004    0.0000000000000000
     0.0000000000000000    0.0000000000000000   28.1466999999999992
 Re  N   H  
  16  32   1
Cartesian
  3.7319111199999888  4.8650294153999853  3.8144407839999892
  3.7319111199999888  1.4446434848999978  1.4686948059999971
  8.4997861199999889  0.8696424891000045  4.5231746899999576
  8.4997861199999889  2.4781265586000170  2.1774287119999665
  5.8038388800000114  3.3840774891000049  4.5231746899999576
  5.8038388800000114  4.9925615586000172  2.1774287119999665
  1.0359638800000115  2.3505944153999856  3.8144407839999892
  1.0359638800000115  3.9590784848999978  1.4686948059999971
  3.7541456794658670  1.7731770403860052  8.5030834204055683
  3.7373165039149461  3.1898276579039426  6.1461642071959934
  8.4895325968049580  2.7926025900068487  9.0083559390020280
  8.4834856558360965  4.2145125191771262  6.9280648089298964
  5.7737587710607636  0.2585281763175758  9.0667181073828527
  5.8154280526056041  1.6977135953729083  6.9220198153334875
  1.0078365639703877  4.2918631904762696  8.5159061045189919
  1.0298177138725269  0.6795114793520844  6.1481391539875601
  3.1124687999999963  3.4688642373000111  1.1326232079999212
  3.1124687999999963  1.8603801677999987  3.4780877190000226
  7.8803437999999959  2.0623898757000156  0.1680357989999381
  7.8803437999999959  0.4539058062000035  2.5135003100000421
  6.4232812000000044  2.9683408062000036  2.5135003100000421
  6.4232812000000044  4.5768248757000158  0.1680357989999381
  1.6554062000000038  4.3748151677999987  3.4780877190000226
  1.6554062000000038  0.9544292373000106  1.1326232079999212
  3.8615019624999949  2.8269792705000132  4.1409425040000283
  3.8615019624999949  4.4354633399999894  1.7954779929999238
  8.6293769624999950  2.9076926340000129  4.1963915030000312
  8.6293769624999950  4.5161767034999896  1.8506455250000364
  5.6742480375000053  0.3932576340000126  4.1963915030000312
  5.6742480375000053  2.0017417034999889  1.8506455250000364
  0.9063730375000048  0.3125442705000131  4.1409425040000283
  0.9063730375000048  1.9210283399999897  1.7954779929999238
  3.1049177555755940  0.1997243413432145  5.9041707966503401
  3.1089108819782982  3.7947076975904355  8.6551985879712845
  7.8948350710126629  3.8676025750017842  4.8821545046055981
  7.8660038664566629  2.1634555377918572  7.1903883878688433
  6.3993639584450106  4.7014456876556086  7.1923412254283434
  6.4132424021021555  1.3598610189942499  4.8660443410280383
  1.6412986239952063  1.2899113969986875  8.6497472777464370
  1.6580455522865076  2.7180991964401748  5.9053025566454975
  3.9216893356915228  4.8020396787626618  8.9304530717877224
  3.8430321075535594  1.1861043405477099  6.5399861583179897
  8.5260097394574590  4.7824207865017794  8.9482514584086079
  8.6156173507089111  1.2079256054955820  6.5252314219231318
  5.7495095301320855  2.2853984140005426  8.9292232883193883
  5.6756281818002741  3.7343033649460846  6.5307357204795258
  0.8338578564444017  2.3041904438332410  8.9561684085421138
  0.9173777927692283  3.7029665071246809  6.5504336758042490
  6.1120182535763519  0.3501559623034481 10.7361165493063879
