Cr  H 
 1.0000000000000000
     5.1325876367826799    0.0000000000000000    0.0000000000000000
     2.5662938183913400    4.4449516854445452    0.0000000000000000
     0.0000000000000000    0.0000000000000000   24.1907392880963528
 Cr  H  
  12   1
Cartesian
  1.2831469117619638  0.7408252823890747  9.9999994000187815
  3.8494407301533036  0.7408252823890747  9.9999994000187815
  2.5662938209576338  2.9633011251113475  9.9999994000187815
  5.1325876393489738  2.9633011251113475  9.9999994000187815
  5.1325876342163861  1.4816505603331980 12.0953696440481764
  2.5662938158250466  1.4816505603331980 12.0953696440481764
  6.4157345434120563  3.7041264030554704 12.0953696440481764
  3.8494407250207163  3.7041264030554704 12.0953696440481764
 -0.0286687252164672 -0.0165702998285552 14.2151555528595708
  2.5950015307434962 -0.0165560137538382 14.2151609473944287
  1.2831451589832858  2.2555994004346211 14.2151634874220552
  3.8494408199735872  2.2224716289080746 14.1198068347074432
  1.2831434908923041  0.7408042799923611 15.2484508861809616
