Ni  H 
 1.0000000000000000
     4.9982549934950002    0.0000000000000000    0.0000000000000000
     2.4991274967480002    4.3286157989590004    0.0000000000000000
     0.0000000000000000    0.0000000000000000   30.1215871691909989
 Ni  H  
  16   1
Cartesian
  0.0000355411255259  0.0000773492075969 12.0056053643189706
  2.4990886048433603  0.0001782219521835 12.0055384603627910
  1.2496481520929090  2.1641550114224044 12.0055199921439524
  3.7486026334541727  2.1642024642449709 12.0054993452175811
  1.2496364187662399  0.7215280882316334 14.0344941764914868
  3.7486233520271761  0.7216227271678723 14.0344555681598653
  2.4992066384288072  2.8855698249775834 14.0343767357258162
  4.9981781596986021  2.8856511705437859 14.0343202077732094
  0.0000294136006014  1.4426660249212200 16.0859314697897666
  2.4991026687856164  1.4427598183158870 16.0858450471686574
  1.2496464780566101  3.6073208203860307 16.0860474595049610
  3.7486063747932876  3.6073532193043545 16.0860178578327471
 -0.0079351005209104 -0.0206083854338799 18.1330427195229369
  2.5076430378845380 -0.0216641559669299 18.1312139830502019
  1.2492962011449695  2.1583259250823486 18.1324510288624303
  3.7480269692758066  2.1500989126202104 18.1006685257925994
  1.2513865513555094  0.7076916340820758 19.0375828471403992
