Bi  H 
 1.0000000000000000
     6.9625255072836483    0.0000000000000000    0.0000000000000000
     3.4812627536418241    6.0297235732951497    0.0000000000000000
     0.0000000000000000    0.0000000000000000   25.6848771823608431
 Bi  H  
  12   1
Cartesian
  1.7406313803021747  1.0049539308924327  9.9999994146908193
  5.2218941339439988  1.0049539308924327  9.9999994146908193
  3.4812627571230870  4.0198157175400073  9.9999994146908193
  6.9625255107649107  4.0198157175400073  9.9999994146908193
  6.9625255038023859  2.0099078557551420 12.8424385911804215
  3.4812627501605613  2.0099078557551420 12.8424385911804215
  8.7031568806232986  5.0247696424027168 12.8424385911804215
  5.2218941269814731  5.0247696424027168 12.8424385911804215
 -0.1021024914160251 -0.0589832504313062 16.0378604371941940
  3.5837180153377268 -0.0585248226074757 16.0379106254442085
  1.7411994423145258  3.1327786146473904 16.0379868838445603
  5.2218150640230760  3.0147918177352304 15.7869219354043864
  1.7406363167327594  1.0050133357290769 16.8254847302430797
