Co Os Co Os Co Os Co  H 
 1.0000000000000000
     5.2074756314830886    0.0000000000000000    0.0000000000000000
     2.5737918178607297    4.5269636796408106    0.0000000000000000
     0.0000000000000000    0.0000000000000000   24.2597762832108188
 Co  Os  Co  Os  Co  Os  Co  H  
   1   2   2   2   2   2   1   1
Cartesian
  0.0000000000000000  0.0000000000000000  9.9999991177790371
  1.2868959089303649  2.2634818398204053  9.9999991177790371
  2.6037378157415443  0.0000000000000000  9.9999991177790371
  3.8906337246719094  2.2634818398204053  9.9999991177790371
  5.2074753564141485  3.0295902248032092 12.1298881416054094
  3.9205794474837834  0.7661083849828040 12.1298881416054094
  2.6037375406726038  3.0295902248032092 12.1298881416054094
  1.3168416317422389  0.7661083849828040 12.1298881416054094
  2.6296814618111970  1.5299271222757191 14.1872976874170114
  3.9424047119059811  3.7443284231540299 14.2342612421924031
  5.2035492260675804  1.5766064284001853 14.2342976075970533
  6.5377475058861680  3.8035541683739478 14.1612153226611923
  1.2580322054456197  0.7318644534268729 15.3176799740315630
