Hg Tl Hg Tl Hg Tl  H 
 1.0000000000000000
     7.0861784985331084    0.0000000000000000    0.0000000000000000
    -3.5430887492665901    6.1368105657169352    0.0000000000000000
     0.0000000000000000    0.0000000000000000   25.7858391752160792
 Hg  Tl  Hg  Tl  Hg  Tl  H  
   3   1   3   1   3   1   1
Cartesian
  0.0000000000000000  0.0000000000000000  9.9999992923310419
 -1.7715444746332878  3.0684050828584817  9.9999992923310419
  1.7715444746332878  3.0684050828584817  9.9999992923310419
  3.5430890492665688  0.0000000000000000  9.9999992923310419
  3.5430890492665688  2.0456034552389832 12.8929193876080532
  1.7715444746332878  5.1140085380974654 12.8929193876080532
 -1.7715444746332878  5.1140085380974654 12.8929193876080532
  0.0000000000000000  2.0456034552389832 12.8929193876080532
  0.0000805999942962  3.8211657295879435 15.5035352028628619
  1.8350535701389461  0.9500591327672596 16.0286102657049270
  5.2509337284076940  0.9502143327562766 16.0286387657029117
  3.5428818492812315  4.1327193075402624 15.6510934924206193
  0.0000918999934965  4.2138103018017050 17.2342612803847430
