Co Sc Co Sc Co Sc  H 
 1.0000000000000000
     5.4069046173701176    0.0000000000000000    0.0000000000000000
     1.7978188727739302    5.0992606391411286    0.0000000000000000
     0.0000000000000000    0.0000000000000000   24.4133372723437851
 Co  Sc  Co  Sc  Co  Sc  H  
   2   2   2   2   2   2   1
Cartesian
  0.0000000000000000  0.0000000000000000  9.9999992923310419
  3.6023619450720097  2.5496305195705498  9.9999992923310419
  2.7034523086850588  0.0000000000000000  9.9999992923310419
  0.8989096363869510  2.5496305195705498  9.9999992923310419
  5.4069046173701176  3.8268250291874528 12.2066687361718849
  1.8045426722981077  1.2771945096169028 12.2066687361718849
  2.7034523086850588  3.8268250291874528 12.2066687361718849
  4.5079949809831668  1.2771945096169028 12.2066687361718849
  3.6080084446724245  2.5536223192880625 14.2985406881365886
  0.0051589996349136  0.0036720997401369 14.1933957955773682
  0.9033746360709767  2.5526943193537344 14.4983497739967202
  2.7077942083777957  0.0031894997742890 14.4983315739980068
  3.6080207446715540  2.5536354192871356 15.8411925789678953
