Pt La Pt La Pt La Pt  H 
 1.0000000000000000
     6.0254825735952728    0.0000000000000000    0.0000000000000000
     3.0127407867976719    5.2182206307226977    0.0000000000000000
     0.0000000000000000    0.0000000000000000   24.9197842365040998
 Pt  La  Pt  La  Pt  La  Pt  H  
   1   1   3   1   3   1   2   1
Cartesian
  0.0000000000000000  0.0000000000000000  9.9999993372338416
  1.5063703933988359  2.6091103153613489  9.9999993372338416
  3.0127412867976364  0.0000000000000000  9.9999993372338416
  4.5191116801964721  2.6091103153613489  9.9999993372338416
  6.0254822432747037  3.4788137555545386 12.4598921182520499
  4.5191118498758680  0.8697034401931898 12.4598921182520499
  3.0127409564770677  3.4788137555545386 12.4598921182520499
  1.5063705630782318  0.8697034401931898 12.4598921182520499
  3.1091017699821464  1.7735260646519619 14.9764420223146910
  4.5188622382011818  4.3915915980394011 15.1182931344022009
  5.9292859057985181  1.7732647100716719 14.9765602916106779
  7.5320124464023692  4.4018615519716233 14.8775845155747355
  1.5061918069989462  1.7615733076214204 15.7492142502045347
