La Zr La Zr La Zr La  H 
 1.0000000000000000
     6.7956695190915299    0.0000000000000000    0.0000000000000000
    -3.3978347595457650    6.0660455707247554    0.0000000000000000
     0.0000000000000000    0.0000000000000000   25.6295171862784983
 La  Zr  La  Zr  La  Zr  La  H  
   1   2   2   2   2   2   1   1
Cartesian
  0.0000000000000000  0.0000000000000000  9.9999993542193817
 -1.6989173797728825  3.0330227853623777  9.9999993542193817
  1.6989173797728825  3.0330227853623777  9.9999993542193817
  3.3978347595457650  0.0000000000000000  9.9999993542193817
  3.3978347629435994  1.9032633077647325 12.8147585931392491
  1.6989173831707172  4.9362860931271095 12.8147585931392491
 -1.6989173763750476  4.9362860931271095 12.8147585931392491
  0.0000000033978347  1.9032633077647325 12.8147585931392491
 -0.0001578260267463  3.8108704440361594 15.8103284885735658
  1.5708102836983444  0.7042533807801390 15.4267613119750244
  5.2250037690903524  0.7043000711328968 15.4269321327070710
  3.3979952902489798  3.8536320131913282 15.7502810414988001
 -0.0001426648880490  1.3761297710724991 16.6363706211046960
