Bi Nb Bi Nb Bi Nb Bi  H 
 1.0000000000000000
     6.8153785176967849    0.0000000000000000    0.0000000000000000
     3.4076887588484275    5.9022905823131877    0.0000000000000000
     0.0000000000000000    0.0000000000000000   25.5647311908632027
 Bi  Nb  Bi  Nb  Bi  Nb  Bi  H  
   1   1   3   1   3   1   2   1
Cartesian
  0.0000000000000000  0.0000000000000000  9.9999991369982979
  1.7038443794242137  2.9511452911565939  9.9999991369982979
  3.4076892588483925  0.0000000000000000  9.9999991369982979
  5.1115336382726060  2.9511452911565939  9.9999991369982979
  6.8153781877711648  3.9348603901762220 12.7823655954316013
  5.1115338083469508  0.9837150990196281 12.7823655954316013
  3.4076889289227714  3.9348603901762220 12.7823655954316013
  1.7038445494985577  0.9837150990196281 12.7823655954316013
  3.4503873043336610  1.9432765612083664 15.5502933237708874
  5.1141216493687027  4.9151984995414697 14.9303102964251302
  6.7697781683192053  1.9445652555295274 15.5503117815068084
  8.5182146429725591  4.9705049749788328 15.5500603779402766
  5.1118483892840327  0.9824974387656252 16.7564081975622550
