Zn Au Zn Au Zn Au Zn  H 
 1.0000000000000000
     5.5685226059329134    0.0000000000000000    0.0000000000000000
     1.9729878603777637    5.2072796314969585    0.0000000000000000
     0.0000000000000000    0.0000000000000000   24.5773552607367378
 Zn  Au  Zn  Au  Zn  Au  Zn  H  
   1   2   2   2   2   2   1   1
Cartesian
  0.0000000000000000  0.0000000000000000  9.9999992857573172
  0.9864939301888819  2.6036398157484792  9.9999992857573172
  2.7842613029664567  0.0000000000000000  9.9999992857573172
  3.7707552331553384  2.6036398157484792  9.9999992857573172
  5.5685224212854036  3.8449662718666127 12.2886776303683689
  4.5820284910965219  1.2413264561181339 12.2886776303683689
  2.7842611183189465  3.8449662718666127 12.2886776303683689
  1.7977671881300648  1.2413264561181339 12.2886776303683689
  3.5853403882065136  2.5495354721871961 14.7433835795911179
  4.5167393956986928  5.0406332797512849 14.9447647512285293
  6.3990083247116161  2.4956791513547607 14.5266968845424387
  7.4254662199345240  5.0527575607575264 14.7431170873280255
  3.9195247806709808  0.7847047032600800 15.6055448888827755
