Cd Tl Cd Tl Cd Tl Cd  H 
 1.0000000000000000
     6.7330245235247208    0.0000000000000000    0.0000000000000000
     3.3665127617623254    5.8309705873602828    0.0000000000000000
     0.0000000000000000    0.0000000000000000   25.4974901956216407
 Cd  Tl  Cd  Tl  Cd  Tl  Cd  H  
   1   1   3   1   3   1   2   1
Cartesian
  0.0000000000000000  0.0000000000000000  9.9999993096750437
  1.6832563808811627  2.9154852936801414  9.9999993096750437
  3.3665122617623604  0.0000000000000000  9.9999993096750437
  5.0497686426435227  2.9154852936801414  9.9999993096750437
  6.7330248602245435  3.8873137268505120 12.7487450978108203
  5.0497684793433804  0.9718284331703706 12.7487450978108203
  3.3665125984621831  3.8873137268505120 12.7487450978108203
  1.6832562175810200  0.9718284331703706 12.7487450978108203
  3.4119346316593786  1.9174258311545893 15.5307225298432563
  5.0482084343903111  4.8608558531216550 15.6806252069146854
  6.6864703815730548  1.9168839532269355 15.5309748530062315
  8.4163894402151982  4.9113814115141317 15.5314318700204979
  1.6841534856094043  2.9144035261858035 16.3348593414314358
