Re  N  H 
 1.0000000000000000
     9.5357500000000002    0.0000000000000000    0.0000000000000000
     0.0000000000000000    5.0288700000000004    0.0000000000000000
     0.0000000000000000    0.0000000000000000   28.1466999999999992
 Re  N   H  
  16  32   1
Cartesian
  3.7319100000000001  4.6138399999999997  3.1639699999999999
  3.7319100000000001  1.1934499999999999  0.8185100000000000
  8.4997900000000008  0.6184500000000001  3.8727000000000000
  8.4997900000000008  2.2269299999999999  1.5272399999999999
  5.8038400000000001  3.1328900000000002  3.8727000000000000
  5.8038400000000001  4.7413699999999999  1.5272399999999999
  1.0359600000000000  2.0994000000000002  3.1639699999999999
  1.0359600000000000  3.7078899999999999  0.8185100000000000
  3.7811900000000001  1.3566100000000001  7.8211800000000000
  3.7436300000000000  2.8738700000000001  5.5927400000000000
  8.4968599999999999  2.4445299999999999  8.3878599999999999
  8.5080899999999993  3.9058799999999998  6.2532699999999997
  5.9042899999999996  4.9652200000000004  8.4186999999999994
  5.8313800000000002  1.3886799999999999  6.2591099999999997
  1.0588299999999999  3.8932600000000002  7.8049600000000003
  1.0430200000000001  0.3714200000000000  5.5194200000000002
  3.1124700000000001  3.2176700000000000  0.4821500000000000
  3.1124700000000001  1.6091899999999999  2.8279000000000001
  7.8803400000000003  3.6231000000000000  4.2087800000000000
  7.8803400000000003  0.2027100000000000  1.8633100000000000
  6.4232800000000001  2.7171500000000002  1.8633100000000000
  6.4232800000000001  1.1086600000000000  4.2087800000000000
  1.6554100000000000  4.1236199999999998  2.8279000000000001
  1.6554100000000000  0.7032400000000000  0.4821500000000000
  3.8614999999999999  2.5757900000000000  3.4907499999999998
  3.8614999999999999  4.1842699999999997  1.1450100000000001
  8.6293799999999994  2.6564999999999999  3.5459200000000002
  8.6293799999999994  4.2649800000000004  1.2004600000000001
  5.6742499999999998  0.1420700000000000  3.5459200000000002
  5.6742499999999998  1.7505500000000001  1.2004600000000001
  0.9063700000000000  0.0613500000000000  3.4907499999999998
  0.9063700000000000  1.6698400000000000  1.1450100000000001
  3.1228300000000000  4.9055600000000004  5.1961599999999999
  3.1432300000000000  3.3450600000000001  7.6370899999999997
  7.9005000000000001  0.4742500000000000  8.7880099999999999
  7.8744600000000000  1.9000200000000000  6.5213799999999997
  6.4362700000000004  4.4081500000000000  6.5321400000000001
  6.5064799999999998  2.9829100000000000  8.7773299999999992
  1.6847799999999999  0.8946400000000000  7.8454199999999998
  1.6704500000000000  2.3969700000000000  5.2178399999999998
  3.8783799999999999  4.3545199999999999  8.4201700000000006
  3.8680200000000000  0.8402800000000000  5.8648300000000004
  8.6838599999999992  4.4965500000000000  8.3216400000000004
  8.6275099999999991  0.9133100000000000  5.8878899999999996
  5.7016000000000000  1.9744200000000001  8.3206199999999999
  5.6970400000000003  3.4264000000000001  5.9002400000000002
  0.8646300000000000  1.9092800000000001  8.1699999999999999
  0.9177100000000000  3.3755500000000001  5.8454499999999996
  3.4977900000000002  4.2298099999999996  9.3643300000000007
