 V  H 
 1.0000000000000000
     5.3991776179169335    0.0000000000000000    0.0000000000000000
     2.6995888089584668    4.6758246691063796    0.0000000000000000
     0.0000000000000000    0.0000000000000000   24.4084092726925235
 V   H  
  12   1
Cartesian
  1.3497944071788219  0.7793041130763381  9.9999995024891444
  4.0493832161372891  0.7793041130763381  9.9999995024891444
  2.6995888116580558  3.1172164476295281  9.9999995024891444
  5.3991776206165225  3.1172164476295281  9.9999995024891444
  5.3991776152173445  1.5586082214768517 12.2042046363462617
  2.6995888062588782  1.5586082214768517 12.2042046363462617
  6.7489720196965779  3.8965205560300413 12.2042046363462617
  4.0493832107381111  3.8965205560300413 12.2042046363462617
  0.0000424321368992  0.0000167768589128 14.1329345348874380
  2.6996199244190788 -0.0257047008546080 14.4466781773722506
  1.3275421825525631  2.3507879051258005 14.4466876234266373
  4.0716729164553946  2.3507744481024031 14.4466958002437451
  2.6996187824930127  1.5586301791494976 15.5118489782363227
