 V  H 
 1.0000000000000000
     5.3991776179169335    0.0000000000000000    0.0000000000000000
     2.6995888089584668    4.6758246691063796    0.0000000000000000
     0.0000000000000000    0.0000000000000000   24.4084092726925235
 V   H  
  12   1
Cartesian
  1.3497944071788219  0.7793041130763381  9.9999995024891444
  4.0493832161372891  0.7793041130763381  9.9999995024891444
  2.6995888116580558  3.1172164476295281  9.9999995024891444
  5.3991776206165225  3.1172164476295281  9.9999995024891444
  5.3991776152173445  1.5586082214768517 12.2042046363462617
  2.6995888062588782  1.5586082214768517 12.2042046363462617
  6.7489720196965779  3.8965205560300413 12.2042046363462617
  4.0493832107381111  3.8965205560300413 12.2042046363462617
 -0.0000413361038428 -0.0000790681951546 14.6147659067595495
  2.6996169764680995 -0.0241853851448753 14.3679144618145145
  1.3288338737071073  2.3499112020278172 14.3678956185225566
  4.0703400538719237  2.3499059043184669 14.3679926175410042
  0.0000438332234911  0.0001239981944000 16.3048445851265349
