Os  V Os  V Os  V  H 
 1.0000000000000000
     5.4337866154677616    0.0000000000000000    0.0000000000000000
    -2.7168938077338454    4.7057976669852835    0.0000000000000000
     0.0000000000000000    0.0000000000000000   24.4366672706927908
 Os  V   Os  V   Os  V   H  
   3   1   3   1   3   1   1
Cartesian
  0.0000000000000000  0.0000000000000000  9.9999992923310419
 -1.3584467038669370  2.3528986334926558  9.9999992923310419
  1.3584467038669370  2.3528986334926558  9.9999992923310419
  2.7168933077338808  0.0000000000000000  9.9999992923310419
  2.7168933077338808  1.5685990889951038 12.2183334353464108
  1.3584467038669370  3.9214977224877599 12.2183334353464108
 -1.3584467038669370  3.9214977224877599 12.2183334353464108
  0.0000000000000000  1.5685990889951038 12.2183334353464108
 -0.0000023999998302  3.1361257780660980 14.4347020785008695
  1.3513559043687309  0.8097693426951332 14.3311243858307424
  4.0824091111005600  0.8097611426957135 14.3311640858279326
  2.7168979077335553  3.1641483760830256 14.2903239887180593
  0.0000014999998938  3.1322710783388836 16.1009690605843190
