Ti Nb Ti Nb Ti Nb Ti  H 
 1.0000000000000000
     5.5213426092716951    0.0000000000000000    0.0000000000000000
    -2.7606718046358121    5.4377026151906387    0.0000000000000000
     0.0000000000000000    0.0000000000000000   24.7568532480342220
 Ti  Nb  Ti  Nb  Ti  Nb  Ti  H  
   1   2   2   2   2   2   1   1
Cartesian
  0.0000000000000000  0.0000000000000000  9.9999994141747486
 -1.3803359023179060  2.7188513075953193  9.9999994141747486
  1.3803354023179415  2.7188513075953193  9.9999994141747486
  2.7606713046358475  0.0000000000000000  9.9999994141747486
  2.7606711757609035  1.4015673379213411 12.3784266240171110
  1.3803352734429977  4.1204186455166605 12.3784266240171110
 -1.3803360311928499  4.1204186455166605 12.3784266240171110
 -0.0000001288749439  1.4015673379213411 12.3784266240171110
 -0.0013574797015432  2.8784089508381423 14.6592692750314839
  1.3845414260211131  0.1349194996966362 14.6815014738989902
  4.1348167464851100  0.1350258013450605 14.6812590547919868
  2.7594137677460395  2.8076045380825034 14.7768652934769253
  2.7598176402919439  1.0947753265529101 15.8405139583527905
