Re  N  H 
 1.0000000000000000
     9.5357500000000002    0.0000000000000000    0.0000000000000000
     0.0000000000000000    5.0288700000000004    0.0000000000000000
     0.0000000000000000    0.0000000000000000   28.1466999999999992
 Re  N   H  
  16  32   1
Cartesian
  3.7319111199999888  4.6138373589000086  3.1639705469999155
  3.7319111199999888  1.1934514283999844  0.8185060360000113
  8.4997861199999889  0.6184504325999914  3.8727044530000838
  8.4997861199999889  2.2269345021000038  1.5272399419999803
  5.8038388800000114  3.1328854325999917  3.8727044530000838
  5.8038388800000114  4.7413695021000040  1.5272399419999803
  1.0359638800000115  2.0994023589000084  3.1639705469999155
  1.0359638800000115  3.7078864283999846  0.8185060360000113
  3.7648333532813969  1.4269106893704291  7.8403644563947790
  3.7478924442046848  2.8991339071886375  5.5161449840454866
  8.5238272948274041  2.4660704091354484  8.5294117205573023
  8.4991726331295379  3.8885632371703140  6.2686293212044557
  5.8828670057294632  4.9791796867036124  8.3993822399827955
  5.8332498912968358  1.4043312496361768  6.2525571957909252
  1.0646418011176564  3.9208774253757075  7.8244617422375313
  1.0321597907382776  0.3797274409052460  5.5332736002498697
  3.1124687999999963  3.2176721807999979  0.4821529710000450
  3.1124687999999963  1.6091881112999855  2.8278989490000397
  7.8803437999999959  3.6230996802000144  4.2087760509999610
  7.8803437999999959  0.2027137496999905  1.8633115400000559
  6.4232812000000044  2.7171487496999904  1.8633115400000559
  6.4232812000000044  1.1086646802000142  4.2087760509999610
  1.6554062000000038  4.1236231112999855  2.8278989490000397
  1.6554062000000038  0.7032371807999975  0.4821529710000450
  3.8615019624999949  2.5757872140000000  3.4907537340000450
  3.8615019624999949  4.1842712835000127  1.1450077560000507
  8.6293769624999950  2.6565005774999997  3.5459212659999548
  8.6293769624999950  4.2649846470000119  1.2004567550000536
  5.6742480375000053  0.1420655774999995  3.5459212659999548
  5.6742480375000053  1.7505496470000117  1.2004567550000536
  0.9063730375000048  0.0613522140000000  3.4907537340000450
  0.9063730375000048  1.6698362835000122  1.1450077560000507
  3.1083132809155249 -0.0959053504321638  5.2423420674646728
  3.1328072371701010  3.4500504246863790  7.9267348929181205
  7.8469894293036599  0.4583355729422225  8.7433196227238366
  7.8628649084465856  1.9051438965501113  6.4894380816872479
  6.4506110172496518  4.4170013252945708  6.5251005063905181
  6.4970578394745901  2.9861280084164461  8.7801486922433867
  1.6739363581627285  0.9238864046763116  7.8270289025243658
  1.6753127108446204  2.4126702898073953  5.2186109617207324
  3.9614991467317586  4.4608281134438519  8.2226498955751506
  3.8652870091713041  0.8808824168623741  5.8765894576643634
  8.6620106908055128  4.4978578114140095  8.2895337979514689
  8.6111771350750708  0.9154383410477618  5.8833562647126580
  5.7035878730311591  1.9974252790041591  8.3072372369187626
  5.6928648808683189  3.4393616577173427  5.8923548548863032
  0.8505087598245799  1.9234362741851616  8.1853738544200514
  0.9262204540501926  3.3851851630208065  5.8709325239632770
 -0.7719947212901532  2.7702666938498623 10.1762635893576352
