Zr  N Zr  N Zr  N Zr  N Zr  N Zr  N Zr  N Zr  N  H 
 1.0000000000000000
     6.5071199999999996    0.0000000000000000    0.0000000000000000
     0.0000000000000000    6.5071199999999996    0.0000000000000000
     0.0000000000000000    0.0000000000000000   27.6073999999999984
 Zr  N   Zr  N   Zr  N   Zr  N   Zr  N   Zr  N   Zr  N   Zr  N   H  
   2   2   2   2   2   2   2   2   2   2   2   2   2   2   2   2   1
Cartesian
  1.6267799999999999  1.6267799999999999  3.4509249999999998
  0.0000000000000000  0.0000000000000000  1.1504003580000000
  1.6267799999999999  1.6267799999999999  1.1504003580000000
  0.0000000000000000  0.0000000000000000  3.4509249999999998
  1.6267799999999999  1.5672108788949839  8.0801658853432166
  0.0202057384706513  0.0000000000000000  5.7215090961199326
  1.6267799999999999  1.6213498975940313  5.8325139593696598
 -0.0933394763594678 -0.0000000000000000  7.9422501144993189
  1.6267799999999999  4.8803399999999995  3.4509249999999998
  0.0000000000000000  3.2535599999999998  1.1504003580000000
  1.6267799999999999  4.8803399999999995  1.1504003580000000
  0.0000000000000000  3.2535599999999998  3.4509249999999998
  1.6267799999999999  4.9399091211050177  8.0801658853432166
  0.0334611167609214  3.2535599999999998  5.7493984681109112
  1.6267799999999999  4.8857701024059716  5.8325139593696598
  0.0088848586276739  3.2535599999999998  8.1205155829784559
  4.8803399999999995  1.6267799999999999  3.4509249999999998
  3.2535599999999998  0.0000000000000000  1.1504003580000000
  4.8803399999999995  1.6267799999999999  1.1504003580000000
  3.2535599999999998  0.0000000000000000  3.4509249999999998
  4.8803399999999995  1.6385752875609121  7.9198015326096121
  3.2333542615293482 -0.0000000000000000  5.7215090961199326
  4.8803399999999995  1.6303484738936382  5.7662926899885498
  3.3468994763594675  0.0000000000000000  7.9422501144993189
  4.8803399999999995  4.8803399999999995  3.4509249999999998
  3.2535599999999998  3.2535599999999998  1.1504003580000000
  4.8803399999999995  4.8803399999999995  1.1504003580000000
  3.2535599999999998  3.2535599999999998  3.4509249999999998
  4.8803399999999995  4.8685447124390890  7.9198015326096121
  3.2200988832390776  3.2535599999999998  5.7493984681109112
  4.8803399999999995  4.8767715261063609  5.7662926899885498
  3.2446751413723267  3.2535599999999998  8.1205155829784559
  1.6267799999999970  0.0000000000000000  9.6214712990552158
