Zn  H 
 1.0000000000000000
     5.6067726032260792    0.0000000000000000    0.0000000000000000
     2.8033868016130041    4.8556076563836950    0.0000000000000000
     0.0000000000000000    0.0000000000000000   24.5779092606975347
 Zn  H  
  12   1
Cartesian
  1.4016932369432336  0.8092679443491516  9.9999991941544497
  4.2050795385562729  0.8092679443491516  9.9999991941544497
  2.8033866377497354  3.2370717725409990  9.9999991941544497
  5.6067729393627754  3.2370717725409990  9.9999991941544497
  5.6067727670893479  1.6185358838426958 12.2889546303487673
  2.8033864654763079  1.6185358838426958 12.2889546303487673
  7.0084661678958495  4.0463397120345430 12.2889546303487673
  4.2050798662828104  4.0463397120345430 12.2889546303487673
  0.0000002102541781  0.0000019956547468 14.7337569670231563
  2.8033862637682541 -0.0136031159507656 14.6468904758299772
  1.3899131713833515  2.4346062286151589 14.6468868137214976
  4.2168596164609582  2.4346060489576757 14.6468813820035511
  0.0000000756914646  0.0000003350369283 16.3177361211828327
