Cu Tl Cu Tl Cu Tl  H 
 1.0000000000000000
     6.0339545729957349    0.0000000000000000    0.0000000000000000
     1.8718758675331462    5.7362615940625448    0.0000000000000000
     0.0000000000000000    0.0000000000000000   24.8769782395333472
 Cu  Tl  Cu  Tl  Cu  Tl  H  
   2   2   2   2   2   2   1
Cartesian
  0.0000000000000000  0.0000000000000000  9.9999992923310419
  3.9529152202644409  2.8681306970312797  9.9999992923310419
  3.0169774864978534  0.0000000000000000  9.9999992923310419
  0.9359377337665873  2.8681306970312797  9.9999992923310419
  6.0339549729957067  4.3780780901769818 12.4384891197666736
  2.0810397527312663  1.5099473931457026 12.4384891197666736
  3.0169774864978534  4.3780780901769818 12.4384891197666736
  5.0980172392291205  1.5099473931457026 12.4384891197666736
  4.7768963619538489  3.4650730547875188 14.4172581797353203
  0.8562761394039914  0.6218490559936696 14.4565347769558361
  1.5802179881728704  3.3524846627550504 15.3416613143181770
  3.6759343398655195  0.4622268672896371 15.3409709143670341
  4.2789226971939014  3.1046469802937553 15.8346006794343843
