Ir Ta Ir Ta Ir Ta  H 
 1.0000000000000000
     5.5576836066999560    0.0000000000000000    0.0000000000000000
    -2.7788418033499780    4.8130946593922070    0.0000000000000000
     0.0000000000000000    0.0000000000000000   24.5378282635339424
 Ir  Ta  Ir  Ta  Ir  Ta  H  
   3   1   3   1   3   1   1
Cartesian
  0.0000000000000000  0.0000000000000000  9.9999992923310419
 -1.3894209016749890  2.4065475296960899  9.9999992923310419
  1.3894209016749890  2.4065475296960899  9.9999992923310419
  2.7788417033499853  0.0000000000000000  9.9999992923310419
  2.7788417033499853  1.6043649864640623 12.2689140317669789
  1.3894209016749890  4.0109126161601445 12.2689140317669789
 -1.3894209016749890  4.0109126161601445 12.2689140317669789
  0.0000000000000000  1.6043649864640623 12.2689140317669789
 -0.0002749999805391  3.1384446779019970 14.5018438737494524
  1.3284032059930220  0.8371358407584910 14.5018198737511526
  4.2289199007324454  0.8372157407528367 14.5021482737279115
  2.7786357033645626  3.2086402729344723 14.4461994776872338
  2.7789934033392498  0.0000821999941830 15.3183695159664630
