Zr Tc Zr Tc Zr Tc Zr  H 
 1.0000000000000000
     6.1612045639906476    0.0000000000000000    0.0000000000000000
     3.0806027819952884    5.3357596224048276    0.0000000000000000
     0.0000000000000000    0.0000000000000000   25.0306012286619257
 Zr  Tc  Zr  Tc  Zr  Tc  Zr  H  
   1   1   3   1   3   1   2   1
Cartesian
  0.0000000000000000  0.0000000000000000  9.9999993510256964
  1.5403013909976442  2.6678798112024138  9.9999993510256964
  3.0806022819953238  0.0000000000000000  9.9999993510256964
  4.6209036729929682  2.6678798112024138  9.9999993510256964
  6.1612049004045595  3.5571730833818047 12.5153006143309629
  4.6209035094069160  0.8892932721793911 12.5153006143309629
  3.0806026184092357  3.5571730833818047 12.5153006143309629
  1.5403012274115917  0.8892932721793911 12.5153006143309629
  3.1048341196922742  1.7626601022498471 15.0518637213602950
  4.6211179322894056  4.4466049839319464 14.5256425883027998
  6.1345809259780006  1.7641140327178371 15.0515295628338919
  7.7019315187109338  4.4768596000482805 15.0533112660599500
  4.6205877014109831  0.8887277403527720 16.2591751732136593
