Hf Ir Hf Ir Hf Ir Hf  H 
 1.0000000000000000
     5.7023105964651517    0.0000000000000000    0.0000000000000000
     2.3219268356844340    5.2081666314341888    0.0000000000000000
     0.0000000000000000    0.0000000000000000   24.7234642503970576
 Hf  Ir  Hf  Ir  Hf  Ir  Hf  H  
   1   2   2   2   2   2   1   1
Cartesian
  0.0000000000000000  0.0000000000000000  9.9999990973017070
  1.1609634178422170  2.6040833157170944  9.9999990973017070
  2.8511552982325759  0.0000000000000000  9.9999990973017070
  4.0121187160747933  2.6040833157170944  9.9999990973017070
  5.7023108684398123  3.7011099731525379 12.3617321251985288
  4.5413474505975957  1.0970266574354435 12.3617321251985288
  2.8511555702072369  3.7011099731525379 12.3617321251985288
  1.6901921523650199  1.0970266574354435 12.3617321251985288
  3.7239465742399380  2.4170598331752804 14.7529259297776960
  4.8543208769884689  5.0061204630686680 14.5999114453168826
  6.5489973266360044  2.3952058451731197 14.5999830197458884
  7.6760802490276241  4.9822552321502798 14.7539557362341185
  1.7615365334487290  1.1433382532286522 15.6132203048963465
