Zr Tc Zr Tc Zr Tc Zr  H 
 1.0000000000000000
     6.1612045639906476    0.0000000000000000    0.0000000000000000
     3.0806027819952884    5.3357596224048276    0.0000000000000000
     0.0000000000000000    0.0000000000000000   25.0306012286619257
 Zr  Tc  Zr  Tc  Zr  Tc  Zr  H  
   1   1   3   1   3   1   2   1
Cartesian
  0.0000000000000000  0.0000000000000000  9.9999993510256964
  1.5403013909976442  2.6678798112024138  9.9999993510256964
  3.0806022819953238  0.0000000000000000  9.9999993510256964
  4.6209036729929682  2.6678798112024138  9.9999993510256964
  6.1612049004045595  3.5571730833818047 12.5153006143309629
  4.6209035094069160  0.8892932721793911 12.5153006143309629
  3.0806026184092357  3.5571730833818047 12.5153006143309629
  1.5403012274115917  0.8892932721793911 12.5153006143309629
  3.1027793941728072  2.2147465507217303 15.1388571754408900
  4.6194532283060896  4.7544255754965965 14.7561263918950161
  6.1366100745078551  2.2129962401497543 15.1376222406680725
  7.6987696398842420  4.9920266420082253 14.8185247271471265
  1.5393022350809296  0.8976208402439150 15.9487004515099766
