Hf Ir Hf Ir Hf Ir Hf  H 
 1.0000000000000000
     5.7023105964651517    0.0000000000000000    0.0000000000000000
     2.3219268356844340    5.2081666314341888    0.0000000000000000
     0.0000000000000000    0.0000000000000000   24.7234642503970576
 Hf  Ir  Hf  Ir  Hf  Ir  Hf  H  
   1   2   2   2   2   2   1   1
Cartesian
  0.0000000000000000  0.0000000000000000  9.9999990973017070
  1.1609634178422170  2.6040833157170944  9.9999990973017070
  2.8511552982325759  0.0000000000000000  9.9999990973017070
  4.0121187160747933  2.6040833157170944  9.9999990973017070
  5.7023108684398123  3.7011099731525379 12.3617321251985288
  4.5413474505975957  1.0970266574354435 12.3617321251985288
  2.8511555702072369  3.7011099731525379 12.3617321251985288
  1.6901921523650199  1.0970266574354435 12.3617321251985288
  3.7200323708575835  2.4250141358673041 14.7283017302362644
  4.8942684163277326  5.0271593677848427 14.5264364494446614
  6.6848537967846404  2.4882343414949624 14.5772865581589883
  7.7418377689904689  5.0142464165165306 14.7284160020880286
  5.5585072098915962  1.7571885427380458 15.7745424914318981
