La Cr La Cr La Cr  H 
 1.0000000000000000
     6.8872595126099894    0.0000000000000000    0.0000000000000000
    -3.4436297563049947    5.9645415779078776    0.0000000000000000
     0.0000000000000000    0.0000000000000000   25.6234221867098242
 La  Cr  La  Cr  La  Cr  H  
   3   1   3   1   3   1   1
Cartesian
  0.0000000000000000  0.0000000000000000  9.9999992923310419
 -1.7218149781524903  2.9822709889539247  9.9999992923310419
  1.7218149781524903  2.9822709889539247  9.9999992923310419
  3.4436298563049874  0.0000000000000000  9.9999992923310419
  3.4436298563049874  1.9881806593026166 12.8117112933548984
  1.7218149781524903  4.9704515482565483 12.8117112933548984
 -1.7218149781524903  4.9704515482565483 12.8117112933548984
  0.0000000000000000  1.9881806593026166 12.8117112933548984
 -0.0000381999972967  3.8669843263455035 15.6709443910158335
  1.6271985848481993  1.0480724258311627 15.6709297910168655
  5.2599506277695962  1.0483029258148509 15.6709596910147493
  3.4438657562882935  3.9772890185395826 15.2042771240404289
  3.4434915563147745  3.9764643185979440 16.9057454036327925
