 Y Ru  Y Ru  Y Ru  H 
 1.0000000000000000
     6.5767995345802799    0.0000000000000000    0.0000000000000000
    -3.2883997672901399    5.6956755969346897    0.0000000000000000
     0.0000000000000000    0.0000000000000000   25.3699332046484543
 Y   Ru  Y   Ru  Y   Ru  H  
   3   1   3   1   3   1   1
Cartesian
  0.0000000000000000  0.0000000000000000  9.9999992923310419
 -1.6441998836450700  2.8478377984673449  9.9999992923310419
  1.6441998836450700  2.8478377984673449  9.9999992923310419
  3.2883997672901399  0.0000000000000000  9.9999992923310419
  3.2883997672901399  1.8985584656449015 12.6849665023242331
  1.6441998836450700  4.7463962641122466 12.6849665023242331
 -1.6441998836450700  4.7463962641122466 12.6849665023242331
  0.0000000000000000  1.8985584656449015 12.6849665023242331
  0.0000805999942962  3.7577726340740769 15.4290544081336378
  1.6096583860894649  0.9708364312969145 15.4287122081578545
  4.9669618485035034  0.9711966312714244 15.4286987081588087
  3.2886070672754699  3.7953478314149964 14.9652457409559378
  3.2883452672939968  3.7968841313062773 16.6624553208496771
