Cr Cu Cr Cu Cr Cu  H 
 1.0000000000000000
     5.1062466386467502    0.0000000000000000    0.0000000000000000
    -2.5531238193233401    4.4221396870588796    0.0000000000000000
     0.0000000000000000    0.0000000000000000   24.1692312896184056
 Cr  Cu  Cr  Cu  Cr  Cu  H  
   3   1   3   1   3   1   1
Cartesian
  0.0000000000000000  0.0000000000000000  9.9999992923310419
 -1.2765617096616841  2.2110698435294398  9.9999992923310419
  1.2765617096616841  2.2110698435294398  9.9999992923310419
  2.5531235193233610  0.0000000000000000  9.9999992923310419
  2.5531235193233610  1.4740464956862980 12.0846158448091892
  1.2765617096616841  3.6851163392157380 12.0846158448091892
 -1.2765617096616841  3.6851163392157380 12.0846158448091892
  0.0000000000000000  1.4740464956862980 12.0846158448091892
 -0.0024641998256162  3.0026879875090771 14.0511719056421107
  1.3273427060680705  0.7021797503089153 14.0554400053400723
  3.7729550329996653  0.7019998503216462 14.0556301053266175
  2.5491700196031379  2.9445202916254245 14.2961554883053825
 -0.0039139997230184  4.4113868878198215 15.2262674224842431
