Au Ag Au Ag Au Ag Au  H 
 1.0000000000000000
     5.9287945804375823    0.0000000000000000    0.0000000000000000
     2.9643977902187557    5.1344866366482940    0.0000000000000000
     0.0000000000000000    0.0000000000000000   24.8408392420907944
 Au  Ag  Au  Ag  Au  Ag  Au  H  
   1   1   3   1   3   1   2   1
Cartesian
  0.0000000000000000  0.0000000000000000  9.9999992652554628
  1.4821988951093779  2.5672433183241470  9.9999992652554628
  2.9643972902187912  0.0000000000000000  9.9999992652554628
  4.4465961853281692  2.5672433183241470  9.9999992652554628
  5.9287949167352894  3.4229910928103582 12.4204196210453972
  4.4465960216259113  0.8557477744862112 12.4204196210453972
  2.9643976265164982  3.4229910928103582 12.4204196210453972
  1.4821987314071203  0.8557477744862112 12.4204196210453972
  2.9064463784238876  1.7546627749520687 14.9392434092528621
  4.4073034207684785  4.2555561210110060 14.9338057992244480
  5.8744150813019775  1.6804341639948206 14.8395449990448007
  7.4178765892818124  4.2072541259979461 14.9396626729375885
  6.1499265557079195  5.2617536987166904 15.7014274026253222
