Nb Os Nb Os Nb Os Nb  H 
 1.0000000000000000
     5.8246825878052650    0.0000000000000000    0.0000000000000000
     2.9123417939025975    5.0443236430288492    0.0000000000000000
     0.0000000000000000    0.0000000000000000   24.7558322481064756
 Nb  Os  Nb  Os  Nb  Os  Nb  H  
   1   1   3   1   3   1   2   1
Cartesian
  0.0000000000000000  0.0000000000000000  9.9999993363136639
  1.4561708969512988  2.5221618215144246  9.9999993363136639
  2.9123412939026325  0.0000000000000000  9.9999993363136639
  4.3685121908539308  2.5221618215144246  9.9999993363136639
  5.8246829240509168  3.3628824303673408 12.3779161240532378
  4.3685120270996176  0.8407206088529160 12.3779161240532378
  2.9123416301482838  3.3628824303673408 12.3779161240532378
  1.4561707331969851  0.8407206088529160 12.3779161240532378
  2.9243488418015726  1.6716458827066456 14.8072556522710794
  4.3675348593230110  4.2039491807086407 14.5785508022460313
  5.8086881842017579  1.6751754363142621 14.8069807882656299
  7.2820726949726282  4.2192938114577894 14.8076839034131407
  4.3677322506509801  0.8409270578866542 15.9907573532188234
