Au In Au In Au In Au  H 
 1.0000000000000000
     6.0568675713742532    0.0000000000000000    0.0000000000000000
     3.0284337856871266    5.2454006287992545    0.0000000000000000
     0.0000000000000000    0.0000000000000000   24.9454102346906303
 Au  In  Au  In  Au  In  Au  H  
   1   1   3   1   3   1   2   1
Cartesian
  0.0000000000000000  0.0000000000000000  9.9999993353082921
  1.5142168928435633  2.6227003143996273  9.9999993353082921
  3.0284337856871266  0.0000000000000000  9.9999993353082921
  4.5426506785306895  2.6227003143996273  9.9999993353082921
  6.0568675744026876  3.4969337542813030 12.4727051173453152
  4.5426506815591239  0.8742334398816759 12.4727051173453152
  3.0284337887155601  3.4969337542813030 12.4727051173453152
  1.5142168958719968  0.8742334398816759 12.4727051173453152
  2.9471867520943471  1.7948037837644486 15.1574731788395969
  4.5415605241355550  4.3721394029425236 15.1932322248477423
  6.1375569037432296  1.7944065338386281 15.1578406247323532
  7.5717163893252737  4.2770405150946207 15.1577565088090402
  4.5425546135825741  0.8751854696050018 15.6273239968210440
