 V Re  V Re  V Re  V  H 
 1.0000000000000000
     5.4415756149165588    0.0000000000000000    0.0000000000000000
     2.7207878074582794    4.7125426665079608    0.0000000000000000
     0.0000000000000000    0.0000000000000000   24.4430272702427125
 V   Re  V   Re  V   Re  V   H  
   1   1   3   1   3   1   2   1
Cartesian
  0.0000000000000000  0.0000000000000000  9.9999994711126021
  1.3603939037291397  2.3562713332539804  9.9999994711126021
  2.7207878074582794  0.0000000000000000  9.9999994711126021
  4.0811817111874191  2.3562713332539804  9.9999994711126021
  5.4415756176373469  3.1416951125761545 12.2215136351213562
  4.0811817139082072  0.7854237793221743 12.2215136351213562
  2.7207878101790670  3.1416951125761545 12.2215136351213562
  1.3603939064499273  0.7854237793221743 12.2215136351213562
  2.7583357675163267  1.5481814913798801 14.5035938320365432
  4.0797551041916078  3.9270948202303888 14.2107137395013243
  5.4012833784899117  1.5490367189104552 14.5037001836481956
  6.8008090427884866  3.9721123359858246 14.5031198572947453
  1.3594602463474958  2.3560745610349403 15.5011952435450411
