Ir Tl Ir Tl Ir Tl  H 
 1.0000000000000000
     5.7149645955696675    0.0000000000000000    0.0000000000000000
    -2.8574817977848692    4.9493046497530484    0.0000000000000000
     0.0000000000000000    0.0000000000000000   24.6662472544461266
 Ir  Tl  Ir  Tl  Ir  Tl  H  
   3   1   3   1   3   1   1
Cartesian
  0.0000000000000000  0.0000000000000000  9.9999992923310419
 -1.4287410988924203  2.4746522248765315  9.9999992923310419
  1.4287410988924203  2.4746522248765315  9.9999992923310419
  2.8574822977848338  0.0000000000000000  9.9999992923310419
  2.8574822977848338  1.6497681832510187 12.3331238272230497
  1.4287410988924203  4.1244204081275502 12.3331238272230497
 -1.4287410988924203  4.1244204081275502 12.3331238272230497
  0.0000000000000000  1.6497681832510187 12.3331238272230497
  0.0013238999063117  3.1983012736661309 14.6310241646077639
  1.5350752913674792  0.7347293480054811 14.4693632760480053
  4.1807985041378473  0.7327193481477225 14.4686513760983839
  2.8573261977958802  3.3023142663054541 15.1932599248200813
  0.0014514998972819  2.7325083066288554 16.1679690558429385
