Zn Nb Zn Nb Zn Nb Zn  H 
 1.0000000000000000
     5.6785125981492621    0.0000000000000000    0.0000000000000000
     2.8147018008122768    4.9318306509896290    0.0000000000000000
     0.0000000000000000    0.0000000000000000   24.6430082560906811
 Zn  Nb  Zn  Nb  Zn  Nb  Zn  H  
   1   2   2   2   2   2   1   1
Cartesian
  0.0000000000000000  0.0000000000000000  9.9999993084318906
  1.4073509004061384  2.4659153254948145  9.9999993084318906
  2.8392562990746311  0.0000000000000000  9.9999993084318906
  4.2466071994807697  2.4659153254948145  9.9999993084318906
  5.6785123916964366  3.2973925006316955 12.3215041280453406
  4.2711614912902984  0.8314771751368811 12.3215041280453406
  2.8392560926218060  3.2973925006316955 12.3215041280453406
  1.4319051922156674  0.8314771751368811 12.3215041280453406
  2.8348923300795947  1.6597457949570107 14.8011819197331196
  4.2725519914971981  4.1298917680800100 14.5262959148206896
  5.6825303427083460  1.6507448341316560 14.5974706644852024
  7.0928392230011621  4.1053527986061962 14.8011096417899051
  4.5430057312724212  0.9901591123786502 15.9056173793776043
