Ti Tc Ti Tc Ti Tc Ti  H 
 1.0000000000000000
     5.6975275968036296    0.0000000000000000    0.0000000000000000
     2.8487637984018148    4.9342036508216998    0.0000000000000000
     0.0000000000000000    0.0000000000000000   24.6520102554536358
 Ti  Tc  Ti  Tc  Ti  Tc  Ti  H  
   1   1   3   1   3   1   2   1
Cartesian
  0.0000000000000000  0.0000000000000000  9.9999991635838281
  1.4243818992009074  2.4671018254108499  9.9999991635838281
  2.8487637984018148  0.0000000000000000  9.9999991635838281
  4.2731456976027218  2.4671018254108499  9.9999991635838281
  5.6975275996523935  3.2894691021925344 12.3260051277268179
  4.2731457004514857  0.8223672767816844 12.3260051277268179
  2.8487638012505787  3.2894691021925344 12.3260051277268179
  1.4243819020496711  0.8223672767816844 12.3260051277268179
  2.8548697874495605  1.6405045594575927 14.6691778889913476
  4.2729498365452905  4.1119789330518950 14.2138157670526901
  5.6903406956103284  1.6408470622698108 14.6691162343136998
  7.1219368327419463  4.1202659823596903 14.6702730052429242
  4.2729165202526680  0.8219379665246375 15.7773323422733718
