Nb Al Nb Al Nb Al Nb  H 
 1.0000000000000000
     5.8436435864634539    0.0000000000000000    0.0000000000000000
     2.9218217932317270    5.0607436418668561    0.0000000000000000
     0.0000000000000000    0.0000000000000000   24.7713132470109336
 Nb  Al  Nb  Al  Nb  Al  Nb  H  
   1   1   3   1   3   1   2   1
Cartesian
  0.0000000000000000  0.0000000000000000  9.9999992933128272
  1.4609108966158635  2.5303718209334281  9.9999992933128272
  2.9218217932317270  0.0000000000000000  9.9999992933128272
  4.3827326898475905  2.5303718209334281  9.9999992933128272
  5.8436435893852758  3.3738290962648185 12.3856566235054668
  4.3827326927694124  0.8434572753313905 12.3856566235054668
  2.9218217961535489  3.3738290962648185 12.3856566235054668
  1.4609108995376852  0.8434572753313905 12.3856566235054668
  2.9378384401758044  1.6775310361991356 14.6714500144781415
  4.3826519043968295  4.2170858497508874 14.9451495674239681
  5.8270303093528417  1.6775532224992613 14.6715437243561553
  7.3042117650702592  4.2366339892770704 14.6719037258515748
  4.3824793620544735  0.8433469258162797 15.8273112226359416
