 Y Pb  Y Pb  Y Pb  H 
 1.0000000000000000
     6.7532635220924702    0.0000000000000000    0.0000000000000000
     2.9363107922063851    6.0815005696310527    0.0000000000000000
     0.0000000000000000    0.0000000000000000   25.5897681890914157
 Y   Pb  Y   Pb  Y   Pb  H  
   2   2   2   2   2   2   1
Cartesian
  0.0000000000000000  0.0000000000000000  9.9999992923310419
  4.8447873571494142  3.0407500848155404  9.9999992923310419
  3.3766317610462351  0.0000000000000000  9.9999992923310419
  1.4681555961031787  3.0407500848155404  9.9999992923310419
  6.7532634220924779  4.2385733000493033 12.7948839945457138
  1.9084760649430637  1.1978232152337633 12.7948839945457138
  3.3766317610462351  4.2385733000493033 12.7948839945457138
  5.2851078259892983  1.1978232152337633 12.7948839945457138
  3.7913268316995503  2.3793965316174819 15.7509479853542267
  8.6289584893553499  5.4155988167548559 15.4976766032774584
  7.1427817945274699  2.3474289338797294 15.7138785879775131
  5.2197313306157902  5.4113102170583467 15.7139534879722120
  3.7748512328654775  2.3692476323356879 17.7304992452675201
