Au Ag Au Ag Au Ag Au  H 
 1.0000000000000000
     5.9287945804375823    0.0000000000000000    0.0000000000000000
     2.9643977902187557    5.1344866366482940    0.0000000000000000
     0.0000000000000000    0.0000000000000000   24.8408392420907944
 Au  Ag  Au  Ag  Au  Ag  Au  H  
   1   1   3   1   3   1   2   1
Cartesian
  0.0000000000000000  0.0000000000000000  9.9999992652554628
  1.4821988951093779  2.5672433183241470  9.9999992652554628
  2.9643972902187912  0.0000000000000000  9.9999992652554628
  4.4465961853281692  2.5672433183241470  9.9999992652554628
  5.9287949167352894  3.4229910928103582 12.4204196210453972
  4.4465960216259113  0.8557477744862112 12.4204196210453972
  2.9643976265164982  3.4229910928103582 12.4204196210453972
  1.4821987314071203  0.8557477744862112 12.4204196210453972
  3.0301733362392023  1.6534970143322130 14.9833819041418490
  4.4468177023835791  4.2059759931049987 14.9249458916144881
  5.8623270106233498  1.6538083952742926 14.9827021345759892
  7.4104222161254762  4.2181305706541981 14.8633679103764287
  1.4820919747409593  1.1315008115942693 15.7696154815040224
