Zn Ir Zn Ir Zn Ir  H 
 1.0000000000000000
     5.4461626145919508    0.0000000000000000    0.0000000000000000
    -2.7230808072960109    4.7165146662268747    0.0000000000000000
     0.0000000000000000    0.0000000000000000   24.4467712699777628
 Zn  Ir  Zn  Ir  Zn  Ir  H  
   3   1   3   1   3   1   1
Cartesian
  0.0000000000000000  0.0000000000000000  9.9999992923310419
 -1.3615406036479911  2.3582575331134228  9.9999992923310419
  1.3615406036479911  2.3582575331134228  9.9999992923310419
  2.7230813072959754  0.0000000000000000  9.9999992923310419
  2.7230813072959754  1.5721716887422821 12.2233858349888678
  1.3615406036479911  3.9304293218556983 12.2233858349888678
 -1.3615406036479911  3.9304293218556983 12.2233858349888678
  0.0000000000000000  1.5721716887422821 12.2233858349888678
  0.0000167999988111  3.1413198776985278 14.5647520692976364
  1.3589156038337544  0.7875964442642406 14.5647537692975142
  4.0872421107585435  0.7875954442643114 14.5647589692971469
  2.7230882072954867  3.1443435774845501 14.4011486808753393
  2.7230844072957558  3.1443420774846560 16.0056851673272647
