Os Ga Os Ga Os Ga Os  H 
 1.0000000000000000
     5.4870426116989997    0.0000000000000000    0.0000000000000000
     2.7435208058495353    4.7519176637215139    0.0000000000000000
     0.0000000000000000    0.0000000000000000   24.4801492676157046
 Os  Ga  Os  Ga  Os  Ga  Os  H  
   1   1   3   1   3   1   2   1
Cartesian
  0.0000000000000000  0.0000000000000000  9.9999991133560098
  1.3717604029247676  2.3759588318607570  9.9999991133560098
  2.7435213058494998  0.0000000000000000  9.9999991133560098
  4.1152817087742672  2.3759588318607570  9.9999991133560098
  5.4870422811092112  3.1679451107316483 12.2400746338078523
  4.1152818781844429  0.7919862788708915 12.2400746338078523
  2.7435209752597114  3.1679451107316483 12.2400746338078523
  1.3717605723349435  0.7919862788708915 12.2400746338078523
  2.6044845891444885  1.6497879431693543 14.4236922224876736
  4.2355894188283534  3.8721433269746273 14.5790486353728017
  5.5585207702650674  1.4950936211353980 14.4248741240943144
  6.9671688362240882  3.9636519653122804 14.4152016988767393
  1.2430670732422597  5.6263522088147475 15.4098473731648991
