La Zr La Zr La Zr  H 
 1.0000000000000000
     7.1910214911136956    0.0000000000000000    0.0000000000000000
    -3.5955107455568478    6.2276075592915134    0.0000000000000000
     0.0000000000000000    0.0000000000000000   25.8714431691581481
 La  Zr  La  Zr  La  Zr  H  
   3   1   3   1   3   1   1
Cartesian
  0.0000000000000000  0.0000000000000000  9.9999992923310419
 -1.7977553727784239  3.1138035796457708  9.9999992923310419
  1.7977553727784239  3.1138035796457708  9.9999992923310419
  3.5955107455568478  0.0000000000000000  9.9999992923310419
  3.5955107455568478  2.0758690530971808 12.9357214845790800
  1.7977553727784239  5.1896727327429444 12.9357214845790800
 -1.7977553727784239  5.1896727327429444 12.9357214845790800
  0.0000000000000000  2.0758690530971808 12.9357214845790800
  0.0000238999983087  4.1449898066719175 15.9462715715317813
  1.7919054731924031  1.0413706263054283 15.9462085715362409
  5.3990655179248659  1.0413813263046710 15.9461503715403570
  3.5954851455586594  4.1516728061989827 15.5418837001490573
  3.5955211455561118  0.0000390999972330 17.1649199852918102
