In  W In  W In  W  H 
 1.0000000000000000
     6.2259055594119594    0.0000000000000000    0.0000000000000000
    -3.1129527797059797    5.3917926184395464    0.0000000000000000
     0.0000000000000000    0.0000000000000000   25.0834292249234529
 In  W   In  W   In  W   H  
   3   1   3   1   3   1   1
Cartesian
  0.0000000000000000  0.0000000000000000  9.9999992923310419
 -1.5564764898529828  2.6958963092197732  9.9999992923310419
  1.5564764898529828  2.6958963092197732  9.9999992923310419
  3.1129529797059656  0.0000000000000000  9.9999992923310419
  3.1129529797059656  1.7972642728131776 12.5417147124617188
  1.5564764898529828  4.4931605820329512 12.5417147124617188
 -1.5564764898529828  4.4931605820329512 12.5417147124617188
  0.0000000000000000  1.7972642728131776 12.5417147124617188
 -0.0000064999995400  3.5462669490416787 15.3820498114600070
  1.5147060928089442  0.9227661346987005 15.3820430114604889
  4.7112098666022790  0.9227377347007103 15.3821266114545718
  3.1129411797068003  3.5945268456264752 14.7680797549087650
  3.1129506797061279  0.0000046999996674 16.4525900357011921
