Hg Ta Hg Ta Hg Ta Hg  H 
 1.0000000000000000
     6.1919825618125843    0.0000000000000000    0.0000000000000000
     3.0959907809063276    5.3624136205186073    0.0000000000000000
     0.0000000000000000    0.0000000000000000   25.0557312268835553
 Hg  Ta  Hg  Ta  Hg  Ta  Hg  H  
   1   1   3   1   3   1   2   1
Cartesian
  0.0000000000000000  0.0000000000000000  9.9999994044516143
  1.5479953904531638  2.6812068102593036  9.9999994044516143
  3.0959912809062922  0.0000000000000000  9.9999994044516143
  4.6439866713594560  2.6812068102593036  9.9999994044516143
  6.1919822315752651  3.5749424154665426 12.5278656134417776
  4.6439868411221017  0.8937356052072390 12.5278656134417776
  3.0959909506689733  3.5749424154665426 12.5278656134417776
  1.5479955602158098  0.8937356052072390 12.5278656134417776
  3.0952959315916799  1.7818703677971504 15.4209103105021086
  4.6441216880979628  4.4682289507075454 14.7387458785837975
  6.1873033365277728  1.7907698133545222 15.4213880230736802
  7.7454863340544611  4.4710714481946825 15.4224917781456874
  4.6451747669580987  0.8918749013050553 16.7282590590050759
