La Hf La Hf La Hf  H 
 1.0000000000000000
     7.1650284929531391    0.0000000000000000    0.0000000000000000
    -3.5825137464766055    6.2050965608845479    0.0000000000000000
     0.0000000000000000    0.0000000000000000   25.8502191706601039
 La  Hf  La  Hf  La  Hf  H  
   3   1   3   1   3   1   1
Cartesian
  0.0000000000000000  0.0000000000000000  9.9999992923310419
 -1.7912570732382884  3.1025481804422808  9.9999992923310419
  1.7912570732382884  3.1025481804422808  9.9999992923310419
  3.5825141464765768  0.0000000000000000  9.9999992923310419
  3.5825141464765768  2.0683654536281870 12.9251097853300383
  1.7912570732382884  5.1709137340704610 12.9251097853300383
 -1.7912570732382884  5.1709137340704610 12.9251097853300383
  0.0000000000000000  2.0683654536281870 12.9251097853300383
 -0.0725294948673124  4.1068876093682922 15.8947471751780025
  1.7292139776288862  0.9862963302028654 15.8947882751750953
  5.4099277171561821  1.0550738253356953 15.8141480808817505
  3.7024936379860001  4.2060537023506148 15.6218682944887952
 -2.1385132486640450  4.9704673482554309 16.9409727011398665
