Cr Ru Cr Ru Cr Ru  H 
 1.0000000000000000
     5.2412366290939270    0.0000000000000000    0.0000000000000000
     2.5117248222530191    4.6001956744584094    0.0000000000000000
     0.0000000000000000    0.0000000000000000   24.3056772799625485
 Cr  Ru  Cr  Ru  Cr  Ru  H  
   2   2   2   2   2   2   1
Cartesian
  0.0000000000000000  0.0000000000000000  9.9999992923310419
  3.8764805256734873  2.3000977372292115  9.9999992923310419
  2.6206182145469707  0.0000000000000000  9.9999992923310419
  1.2558623111265164  2.3000977372292115  9.9999992923310419
  5.2412364290939415  3.1098714799240335 12.1528384399812879
  1.3647559034204544  0.8097737426948218 12.1528384399812879
  2.6206182145469707  3.1098714799240335 12.1528384399812879
  3.9853741179674254  0.8097737426948218 12.1528384399812879
  2.6615196116525057  1.5791980882450456 14.2030946948910071
  6.5576396359361668  3.8909307246508917 14.1434554991114876
  5.3323642226451105  1.6016219866581758 14.2388309923620593
  3.9611507196816400  3.9125841231185476 14.2386819923726033
  2.7111641081393185  1.6086812861586111 15.8433186788174378
