Nb Tl Nb Tl Nb Tl  H 
 1.0000000000000000
     6.0079215748380097    0.0000000000000000    0.0000000000000000
    -3.0039607874190049    5.2030126317989218    0.0000000000000000
     0.0000000000000000    0.0000000000000000   24.9054462375187562
 Nb  Tl  Nb  Tl  Nb  Tl  H  
   3   1   3   1   3   1   1
Cartesian
  0.0000000000000000  0.0000000000000000  9.9999992923310419
 -1.5019803937095024  2.6015064158994536  9.9999992923310419
  1.5019803937095024  2.6015064158994536  9.9999992923310419
  3.0039607874190049  0.0000000000000000  9.9999992923310419
  3.0039607874190049  1.7343375772663048 12.4527230187593858
  1.5019803937095024  4.3358439931657582 12.4527230187593858
 -1.5019803937095024  4.3358439931657582 12.4527230187593858
  0.0000000000000000  1.7343375772663048 12.4527230187593858
 -0.0000993999929658  3.5550468484203521 14.7114545589159551
  1.5760357884688316  0.8245485416492551 14.7114708589148009
  4.4320235863594268  0.8247575416344648 14.7117589588944124
  3.0037561874334839  3.4692842544895055 15.2788336187642972
  3.0040247874144757  3.4680146545793509 17.0684635921177303
