Sc Ir Sc Ir Sc Ir Sc  H 
 1.0000000000000000
     5.5832296048921446    0.0000000000000000    0.0000000000000000
     1.7813698739379749    5.2914246255422785    0.0000000000000000
     0.0000000000000000    0.0000000000000000   24.5318252639587548
 Sc  Ir  Sc  Ir  Sc  Ir  Sc  H  
   1   2   2   2   2   2   1   1
Cartesian
  0.0000000000000000  0.0000000000000000  9.9999993624602652
  0.8906849369689874  2.6457123127711393  9.9999993624602652
  2.7916148024460723  0.0000000000000000  9.9999993624602652
  3.6822997394150598  2.6457123127711393  9.9999993624602652
  5.5832299778881183  4.0115203386126383 12.2659126319793774
  4.6925450409191303  1.3658080258414991 12.2659126319793774
  2.7916151754420460  4.0115203386126383 12.2659126319793774
  1.9009302384730584  1.3658080258414991 12.2659126319793774
  3.7897797991232585  2.7207938342561278 14.6408248979610764
  2.9118189058678805  0.0864795358653363 14.4018864163314593
  1.0751500825350608  2.7783534539388621 14.4358942233356036
  0.1052423463289153  0.0780392796907770 14.6406593081405436
  5.7448493269529477  2.1218332990804583 15.7041733003502966
