Co  V Co  V Co  V  H 
 1.0000000000000000
     5.0643276416132279    0.0000000000000000    0.0000000000000000
     2.3957658304590774    4.4618076842516983    0.0000000000000000
     0.0000000000000000    0.0000000000000000   24.1665772898062201
 Co  V   Co  V   Co  V   H  
   2   2   2   2   2   2   1
Cartesian
  0.0000000000000000  0.0000000000000000  9.9999992923310419
  3.7300470360361313  2.2309036421258632  9.9999992923310419
  2.5321640208065999  0.0000000000000000  9.9999992923310419
  1.1978830152295317  2.2309036421258632  9.9999992923310419
  5.0643281416131929  3.0289236856524582 12.0832887449031041
  1.3342810055770686  0.7980200435265947 12.0832887449031041
  2.5321640208065999  3.0289236856524582 12.0832887449031041
  3.8664450263836683  0.7980200435265947 12.0832887449031041
  2.7283394069238760  1.6325554844691081 14.1196349007971982
  6.5090788393726635  3.8932446244871439 14.0643655047084426
  5.3221988233644835  1.6746654814891140 14.1344960997455171
  3.9920637174940228  3.8975405241831362 14.1349592997127367
  3.8274950291400387  2.2893143379923195 15.2045258240228289
