Ga La Ga La Ga La Ga  H 
 1.0000000000000000
     6.3868675480211774    0.0000000000000000    0.0000000000000000
     3.1934337740105887    5.5311896085748531    0.0000000000000000
     0.0000000000000000    0.0000000000000000   25.2148542156229141
 Ga  La  Ga  La  Ga  La  Ga  H  
   1   1   3   1   3   1   2   1
Cartesian
  0.0000000000000000  0.0000000000000000  9.9999992258515107
  1.5967168870052943  2.7655948042874265  9.9999992258515107
  3.1934337740105887  0.0000000000000000  9.9999992258515107
  4.7901506610158826  2.7655948042874265  9.9999992258515107
  6.3868675512146114  3.6874597408936318 12.6074271078114570
  4.7901506642093166  0.9218649366062054 12.6074271078114570
  3.1934337772040227  3.6874597408936318 12.6074271078114570
  1.5967168901987279  0.9218649366062054 12.6074271078114570
  3.0680601101201086  1.9169297083977554 15.0189853466382335
  4.7896198899686064  4.6100143338761823 15.2171850692346133
  6.5122894519222481  1.9177824408373298 15.0209163253889226
  7.9825921106089694  4.4630068410794070 15.0226743302396866
  1.5989546058865878  2.7614834102082870 15.9319589634461849
