Re Pd Re Pd Re Pd Re  H 
 1.0000000000000000
     5.5242906090630743    0.0000000000000000    0.0000000000000000
     2.7621448045315726    4.7841756614387156    0.0000000000000000
     0.0000000000000000    0.0000000000000000   24.5105632654634000
 Re  Pd  Re  Pd  Re  Pd  Re  H  
   1   1   3   1   3   1   2   1
Cartesian
  0.0000000000000000  0.0000000000000000  9.9999994840675637
  1.3810724022657863  2.3920878307193578  9.9999994840675637
  2.7621453045315372  0.0000000000000000  9.9999994840675637
  4.1432177067973237  2.3920878307193578  9.9999994840675637
  5.5242902784919092  3.1894504425538690 12.2552816327317000
  4.1432178762261236  0.7973626118345111 12.2552816327317000
  2.7621449739603725  3.1894504425538690 12.2552816327317000
  1.3810725716945862  0.7973626118345111 12.2552816327317000
  2.6473139062586872  1.6608191271227697 14.4176668102852332
  4.1437742256992767  3.9864132169074753 14.5289584934258649
  5.6393255728140730  1.6607080864056676 14.4155639019993078
  6.9056225720372808  3.8538065314999437 14.4155223565945754
  1.3800302513121780  5.5809715493927232 15.4061136581267419
