Pd Re Pd Re Pd Re Pd  H 
 1.0000000000000000
     5.3912816184757091    0.0000000000000000    0.0000000000000000
    -2.6956408092378545    4.9366446506489581    0.0000000000000000
     0.0000000000000000    0.0000000000000000   24.5165692650383740
 Pd  Re  Pd  Re  Pd  Re  Pd  H  
   1   2   2   2   2   2   1   1
Cartesian
  0.0000000000000000  0.0000000000000000  9.9999994492707209
 -1.3478204046189273  2.4683223253244790  9.9999994492707209
  1.3478204046189273  2.4683223253244790  9.9999994492707209
  2.6956408092378545  0.0000000000000000  9.9999994492707209
  2.6956408092378545  1.4719472110847378 12.2582846325191870
  1.3478204046189273  3.9402695364092168 12.2582846325191870
 -1.3478204046189273  3.9402695364092168 12.2582846325191870
  0.0000000000000000  1.4719472110847378 12.2582846325191870
  0.0079208278236116  3.0314148622867751 14.5697990631937202
  1.3484096339608553  0.4557856795200700 14.3883155024412410
  4.0424573060022464  0.4262823509864442 14.4511839784383813
  2.6874587226026523  3.0322614919077169 14.5695707158675845
  4.0431619087708102  1.9826870807615651 15.4455036794324361
