In Rh In Rh In Rh  H 
 1.0000000000000000
     6.2112485604491887    0.0000000000000000    0.0000000000000000
    -3.1056237802246303    5.3790986193378618    0.0000000000000000
     0.0000000000000000    0.0000000000000000   25.0714612257703919
 In  Rh  In  Rh  In  Rh  H  
   3   1   3   1   3   1   1
Cartesian
  0.0000000000000000  0.0000000000000000  9.9999992923310419
 -1.5528119901123079  2.6895493096689309  9.9999992923310419
  1.5528119901123079  2.6895493096689309  9.9999992923310419
  3.1056240802246089  0.0000000000000000  9.9999992923310419
  3.1056240802246089  1.7930328731126206 12.5357307128851883
  1.5528119901123079  4.4825821827815515 12.5357307128851883
 -1.5528119901123079  4.4825821827815515 12.5357307128851883
  0.0000000000000000  1.7930328731126206 12.5357307128851883
 -0.0000016999998797  3.5232708506690416 15.3220981157026035
  1.4984648939582834  0.9279072343348808 15.3221713156974229
  4.7127563664928376  0.9278958343356876 15.3220839157036064
  3.1056142802253026  3.5861057462224104 14.6518527631337889
  3.1056596802220895  0.0000089999993631 16.3536778427009004
