Cu Mo Cu Mo Cu Mo  H 
 1.0000000000000000
     5.3462946216592986    0.0000000000000000    0.0000000000000000
    -2.6731468108296852    4.6300266723473618    0.0000000000000000
     0.0000000000000000    0.0000000000000000   24.3652302757481642
 Cu  Mo  Cu  Mo  Cu  Mo  H  
   3   1   3   1   3   1   1
Cartesian
  0.0000000000000000  0.0000000000000000  9.9999992923310419
 -1.3365736054148283  2.3150134361736736  9.9999992923310419
  1.3365736054148283  2.3150134361736736  9.9999992923310419
  2.6731473108296493  0.0000000000000000  9.9999992923310419
  2.6731473108296493  1.5433422907824492 12.1826149378740975
  1.3365736054148283  3.8583557269561233 12.1826149378740975
 -1.3365736054148283  3.8583557269561233 12.1826149378740975
  0.0000000000000000  1.5433422907824492 12.1826149378740975
 -0.0002655999812043  3.1163812794633552 14.2622809907025765
  1.3623033035940173  0.7567502464471304 14.2617402907408408
  3.9839103180710138  0.7570412464265373 14.2618923907300754
  2.6728174108529954  3.0874349815117950 14.4261436791065218
  2.6730531108363156  3.0868118815558896 16.1460023573974532
