Ga La Ga La Ga La Ga  H 
 1.0000000000000000
     6.3868675480211774    0.0000000000000000    0.0000000000000000
     3.1934337740105887    5.5311896085748531    0.0000000000000000
     0.0000000000000000    0.0000000000000000   25.2148542156229141
 Ga  La  Ga  La  Ga  La  Ga  H  
   1   1   3   1   3   1   2   1
Cartesian
  0.0000000000000000  0.0000000000000000  9.9999992258515107
  1.5967168870052943  2.7655948042874265  9.9999992258515107
  3.1934337740105887  0.0000000000000000  9.9999992258515107
  4.7901506610158826  2.7655948042874265  9.9999992258515107
  6.3868675512146114  3.6874597408936318 12.6074271078114570
  4.7901506642093166  0.9218649366062054 12.6074271078114570
  3.1934337772040227  3.6874597408936318 12.6074271078114570
  1.5967168901987279  0.9218649366062054 12.6074271078114570
  3.0803700947634889  1.9308684721470522 15.0946078967173740
  4.7898144052132148  4.5970898741461168 15.2214872024460295
  6.4991649245129972  1.9313041528901402 15.0946465763037416
  7.9836968183478465  4.3186038803767071 15.0052089588889874
  1.5968726627047904  1.2438264623510960 16.0694326936112049
