Au Pd Au Pd Au Pd Au  H 
 1.0000000000000000
     5.8524225858421914    0.0000000000000000    0.0000000000000000
     2.9262107929211312    5.0683466413288158    0.0000000000000000
     0.0000000000000000    0.0000000000000000   24.7784812465036772
 Au  Pd  Au  Pd  Au  Pd  Au  H  
   1   1   3   1   3   1   2   1
Cartesian
  0.0000000000000000  0.0000000000000000  9.9999991829503490
  1.4631053964605656  2.5341733206644079  9.9999991829503490
  2.9262112929210957  0.0000000000000000  9.9999991829503490
  4.3893166893816611  2.5341733206644079  9.9999991829503490
  5.8524222554350924  3.3788977625753263 12.3892406232518386
  4.3893168589745271  0.8447244419109181 12.3892406232518386
  2.9262109625139971  3.3788977625753263 12.3892406232518386
  1.4631055660534316  0.8447244419109181 12.3892406232518386
  2.8906463238109357  1.7099065199926038 14.8796985665655139
  4.3898817907344219  4.2228202197237996 14.7264114975872324
  5.8876914419455577  1.7104342970650588 14.8794620064050527
  7.3148074420260496  4.1829512517945551 14.8798571736239733
  4.3890947888131659  0.8445859848173703 15.5957847065830286
