Pd Re Pd Re Pd Re Pd  H 
 1.0000000000000000
     5.3912816184757091    0.0000000000000000    0.0000000000000000
    -2.6956408092378545    4.9366446506489581    0.0000000000000000
     0.0000000000000000    0.0000000000000000   24.5165692650383740
 Pd  Re  Pd  Re  Pd  Re  Pd  H  
   1   2   2   2   2   2   1   1
Cartesian
  0.0000000000000000  0.0000000000000000  9.9999994492707209
 -1.3478204046189273  2.4683223253244790  9.9999994492707209
  1.3478204046189273  2.4683223253244790  9.9999994492707209
  2.6956408092378545  0.0000000000000000  9.9999994492707209
  2.6956408092378545  1.4719472110847378 12.2582846325191870
  1.3478204046189273  3.9402695364092168 12.2582846325191870
 -1.3478204046189273  3.9402695364092168 12.2582846325191870
  0.0000000000000000  1.4719472110847378 12.2582846325191870
  0.0000853871182733  3.0240387154422725 14.5244997000964311
  1.3871516613222250  0.4644743962542215 14.3996230345176635
  4.0040855922970451  0.4650665862732241 14.3997560369059272
  2.6956707820680128  2.9821485457437347 14.5103848492231755
  0.0002411574180760  0.3509703268864477 15.6484289903658684
