Ni Sn Ni Sn Ni Sn Ni  H 
 1.0000000000000000
     5.5887216045034922    0.0000000000000000    0.0000000000000000
     1.7796438740601186    5.2977986250912110    0.0000000000000000
     0.0000000000000000    0.0000000000000000   24.5349962637343566
 Ni  Sn  Ni  Sn  Ni  Sn  Ni  H  
   1   2   3   2   1   2   1   1
Cartesian
  3.5592879570591780  2.5591009159452938  9.9999991708939824
  6.3536487593109241  2.5591009159452938  9.9999991708939824
  4.4491098940892373  5.2080002284908993  9.9999991708939824
  7.2434706963409834  5.2080002284908993  9.9999991708939824
  5.4638267178113944  3.9284497705182524 12.2674981318671783
  1.7796439785295890  1.2795504579726469 12.2674981318671783
  4.5740047807813351  1.2795504579726469 12.2674981318671783
  2.6694659155596483  3.9284497705182524 12.2674981318671783
 -0.0916110787944179 -0.0501168094452577 14.2582932205677029
  2.6893213955194573 -0.0358502032959922 14.7801009940001897
  0.7884228017523238  2.6243777417043548 14.7434794452020324
  3.5654524800086262  2.5740625826785739 14.3451036067929447
  3.5150598542182778  2.5188729191378463 15.8478201137545973
