Tl Cu Tl Cu Tl Cu Tl  H 
 1.0000000000000000
     6.7822395200419283    0.0000000000000000    0.0000000000000000
     3.3911197600209642    5.8735915843441271    0.0000000000000000
     0.0000000000000000    0.0000000000000000   25.5376741927779456
 Tl  Cu  Tl  Cu  Tl  Cu  Tl  H  
   1   1   3   1   3   1   2   1
Cartesian
  0.0000000000000000  0.0000000000000000  9.9999994038892979
  1.6955598800104821  2.9367957921720635  9.9999994038892979
  3.3911197600209642  0.0000000000000000  9.9999994038892979
  5.0866796400314467  2.9367957921720635  9.9999994038892979
  6.7822395234330486  3.9157277248539484 12.7688370963889728
  5.0866796434225661  0.9789319326818849 12.7688370963889728
  3.3911197634120840  3.9157277248539484 12.7688370963889728
  1.6955598834016019  0.9789319326818849 12.7688370963889728
  3.4052721676672024  2.2411895301984188 15.7605227395496570
  5.0873651752376530  4.9736489036275930 15.0674631034066753
  6.7679763685976875  2.2413326050158222 15.7609832348907002
  8.4783845547226004  5.2501267829777190 15.3701388101487524
  1.6939732835906005 -0.3519249326915232 16.5099458868863174
