Hg Pb Hg Pb Hg Pb Hg  H 
 1.0000000000000000
     6.8807035130739367    0.0000000000000000    0.0000000000000000
     3.4403517565369683    5.9588635783096926    0.0000000000000000
     0.0000000000000000    0.0000000000000000   25.6180691870886399
 Hg  Pb  Hg  Pb  Hg  Pb  Hg  H  
   1   1   3   1   3   1   2   1
Cartesian
  0.0000000000000000  0.0000000000000000  9.9999992428600670
  1.7201758782684842  2.9794317891548463  9.9999992428600670
  3.4403517565369683  0.0000000000000000  9.9999992428600670
  5.1605276348054527  2.9794317891548463  9.9999992428600670
  6.8807035165142887  3.9725757208594161 12.8090345935443199
  5.1605276382458047  0.9931439317045699 12.8090345935443199
  3.4403517599773199  3.9725757208594161 12.8090345935443199
  1.7201758817088360  0.9931439317045699 12.8090345935443199
  3.5094091047808096  1.9469254936117166 15.7730177615383766
  5.1598721824291491  4.9661101666885914 15.3489670627525427
  6.8093048678457020  1.9475089021092149 15.7742678976966371
  8.6003585048847224  5.0474103032865285 15.7751626087629955
  1.7225711509315862  2.9747451250739152 16.2102482652330977
