Ru Rh Ru Rh Ru Rh Ru  H 
 1.0000000000000000
     5.4138306168799861    0.0000000000000000    0.0000000000000000
     2.7069148084400281    4.6885146682083469    0.0000000000000000
     0.0000000000000000    0.0000000000000000   24.4203722718459382
 Ru  Rh  Ru  Rh  Ru  Rh  Ru  H  
   1   1   3   1   3   1   2   1
Cartesian
  0.0000000000000000  0.0000000000000000  9.9999991954171659
  1.3534574042200140  2.3442573341041735  9.9999991954171659
  2.7069153084399931  0.0000000000000000  9.9999991954171659
  4.0603727126600067  2.3442573341041735  9.9999991954171659
  5.4138302862535914  3.1256764470350693 12.2101861359229691
  4.0603728820335769  0.7814191129308961 12.2101861359229691
  2.7069149778135984  3.1256764470350693 12.2101861359229691
  1.3534575735935841  0.7814191129308961 12.2101861359229691
  2.6767546733177676  1.5801617249390618 14.3298578432660513
  4.0745994900935649  3.8988328358451980 14.3525515242756718
  5.4649195340484020  1.6008148242816209 14.3565932424088967
  6.7600703289888688  3.8437369278504150 14.3565650124585513
  2.6869690831157080  4.7001178558828896 15.3704670738608957
