Au Ir Au Ir Au Ir Au  H 
 1.0000000000000000
     5.8153535884654497    0.0000000000000000    0.0000000000000000
     2.9076767942327248    5.0362446436005754    0.0000000000000000
     0.0000000000000000    0.0000000000000000   24.7482152486455078
 Au  Ir  Au  Ir  Au  Ir  Au  H  
   1   1   3   1   3   1   2   1
Cartesian
  0.0000000000000000  0.0000000000000000  9.9999993326357952
  1.4538383971163624  2.5181223218002877  9.9999993326357952
  2.9076767942327248  0.0000000000000000  9.9999993326357952
  4.3615151913490875  2.5181223218002877  9.9999993326357952
  5.8153535913731265  3.3574964307457984 12.3741076243227539
  4.3615151942567643  0.8393741089455108 12.3741076243227539
  2.9076767971404016  3.3574964307457984 12.3741076243227539
  1.4538384000240392  0.8393741089455108 12.3741076243227539
  2.8769972392418199  1.6963094518759176 14.8991194701437379
  4.3615377083981812  4.1967368676859786 14.6075237477176465
  5.8458325341112900  1.6962217356029599 14.8986868713411909
  7.2690404520056795  4.1615587441766309 14.8991154856810830
  4.3611969781084037  0.8396674399785327 15.6289333991151533
