In Zn In Zn In Zn In  H 
 1.0000000000000000
     6.6204055314944181    0.0000000000000000    0.0000000000000000
     3.3102027657472091    5.7334395942622489    0.0000000000000000
     0.0000000000000000    0.0000000000000000   25.4055372021288690
 In  Zn  In  Zn  In  Zn  In  H  
   1   1   3   1   3   1   2   1
Cartesian
  0.0000000000000000  0.0000000000000000  9.9999993825667808
  1.6551013828736045  2.8667197971311245  9.9999993825667808
  3.3102027657472091  0.0000000000000000  9.9999993825667808
  4.9653041486208132  2.8667197971311245  9.9999993825667808
  6.6204055348046209  3.8222930647526456 12.7027686010644345
  4.9653041519310168  0.9555732676215213 12.7027686010644345
  3.3102027690574118  3.8222930647526456 12.7027686010644345
  1.6551013861838073  0.9555732676215213 12.7027686010644345
  3.3836588695547993  1.8680968492466554 15.4644965767747564
  4.9645242780900141  4.7784009526825741 15.3048004185866358
  6.5450570410390974  1.8679046471511371 15.4648464872386402
  8.2765042883919513  4.8640381234424561 15.4654920165334087
  1.6555165650554986  2.8668998443347031 16.1933277572037220
