Mn  W Mn  W Mn  W  H 
 1.0000000000000000
     5.2100636312999438    0.0000000000000000    0.0000000000000000
     1.7015218795885698    4.9243866515164187    0.0000000000000000
     0.0000000000000000    0.0000000000000000   24.2427222844176775
 Mn  W   Mn  W   Mn  W   H  
   2   2   2   2   2   2   1
Cartesian
  0.0000000000000000  0.0000000000000000  9.9999992923310419
  3.4557924554442780  2.4621934257582021  9.9999992923310419
  2.6050317156499792  0.0000000000000000  9.9999992923310419
  0.8507607397942991  2.4621934257582021  9.9999992923310419
  5.2100634312999583  3.7120817373074799 12.1213610422088465
  1.7542709758556798  1.2498883115492778 12.1213610422088465
  2.6050317156499792  3.7120817373074799 12.1213610422088465
  4.3593026915056585  1.2498883115492778 12.1213610422088465
  3.4886697531176538  2.4860468240701712 14.0915601027839639
  0.0333618976390819  0.0234324983417547 14.0916485027777085
  0.8819411375877589  2.4847949241587641 14.3874687818434239
  2.6359920134590147  0.0216213984699206 14.2124550942286003
  0.9102992355809444  2.5045773227588248 16.1284797586374715
