 V Ga  V Ga  V Ga  V  H 
 1.0000000000000000
     5.3175206236955459    0.0000000000000000    0.0000000000000000
    -2.6587608118477375    4.7908596609657099    0.0000000000000000
     0.0000000000000000    0.0000000000000000   24.4235032716243659
 V   Ga  V   Ga  V   Ga  V   H  
   1   2   2   2   2   2   1   1
Cartesian
  0.0000000000000000  0.0000000000000000  9.9999992096557424
 -1.3293804059238687  2.3954298304828550  9.9999992096557424
  1.3293799059239042  2.3954298304828550  9.9999992096557424
  2.6587603118477730  0.0000000000000000  9.9999992096557424
  2.6587601551958109  1.4755197396575410 12.2117516358121829
  1.3293797492719426  3.8709495701403958 12.2117516358121829
 -1.3293805625758304  3.8709495701403958 12.2117516358121829
 -0.0000001566519620  1.4755197396575410 12.2117516358121829
  0.0362690372057957  2.8045473896275537 14.2989603392190023
  1.3291986724260392  0.3742536014553925 14.6206257660978505
  3.9883445021989545  0.5238614027691322 14.6457142969400600
  2.6224460539519354  2.8048015926411640 14.2988688731992486
  1.3293367011448096  2.8023098282046184 15.5508634938183548
