La Au La Au La Au  H 
 1.0000000000000000
     7.0649725000337922    0.0000000000000000    0.0000000000000000
    -3.5324857500169315    6.1184455670165692    0.0000000000000000
     0.0000000000000000    0.0000000000000000   25.7685241764414066
 La  Au  La  Au  La  Au  H  
   3   1   3   1   3   1   1
Cartesian
  0.0000000000000000  0.0000000000000000  9.9999992923310419
 -1.7662430750084515  3.0592227835082846  9.9999992923310419
  1.7662430750084515  3.0592227835082846  9.9999992923310419
  3.5324862500168961  0.0000000000000000  9.9999992923310419
  3.5324862500168961  2.0394818556721899 12.8842621882206956
  1.7662430750084515  5.0987047391804676 12.8842621882206956
 -1.7662430750084515  5.0987047391804676 12.8842621882206956
  0.0000000000000000  2.0394818556721899 12.8842621882206956
 -0.3271685768472938  4.2185487014663829 15.9672396700479347
  1.2783085095380684  1.3082643074181897 15.6806377903298610
  5.0195656447808963  1.2195862136936635 15.9676045700221110
  3.3358846639297810  4.1945755031628913 15.4386568074541053
 -0.2743094805879682  2.1968898445329139 17.2739220775780709
