Sn Ag Sn Ag Sn Ag Sn  H 
 1.0000000000000000
     6.6594025287347218    0.0000000000000000    0.0000000000000000
     3.3297017643673259    5.7672125918722390    0.0000000000000000
     0.0000000000000000    0.0000000000000000   25.4373781998755817
 Sn  Ag  Sn  Ag  Sn  Ag  Sn  H  
   1   1   3   1   3   1   2   1
Cartesian
  0.0000000000000000  0.0000000000000000  9.9999992502865265
  1.6648508821836630  2.8836062959361195  9.9999992502865265
  3.3297012643673609  0.0000000000000000  9.9999992502865265
  4.9945521465510243  2.8836062959361195  9.9999992502865265
  6.6594028653977331  3.8448083965038968 12.7186890999377908
  4.9945519832140697  0.9612021005677773 12.7186890999377908
  3.3297016010303722  3.8448083965038968 12.7186890999377908
  1.6648507188467092  0.9612021005677773 12.7186890999377908
  3.2971543674062080  1.8502066467042659 15.4016993636812689
  4.9924278442286543  4.4636638381857976 15.1551350857262790
  6.6832568693749170  1.8570447845367481 15.3970781806210777
  8.3266990545533552  4.8580574107069614 15.3392800312471529
  1.6725543123890958 -0.0370492426868479 16.3547345727629825
