Zr Ga Zr Ga Zr Ga Zr  H 
 1.0000000000000000
     6.1664245636212449    0.0000000000000000    0.0000000000000000
     3.0832117818106579    5.3402796220849620    0.0000000000000000
     0.0000000000000000    0.0000000000000000   25.0348632283603187
 Zr  Ga  Zr  Ga  Zr  Ga  Zr  H  
   1   1   3   1   3   1   2   1
Cartesian
  0.0000000000000000  0.0000000000000000  9.9999994705735897
  1.5416058909053290  2.6701398110424810  9.9999994705735897
  3.0832122818106225  0.0000000000000000  9.9999994705735897
  4.6248181727159512  2.6701398110424810  9.9999994705735897
  6.1664242333711474  3.5601864165034010 12.5174316141801594
  4.6248183424658187  0.8900466054609202 12.5174316141801594
  3.0832119515605250  3.5601864165034010 12.5174316141801594
  1.5416060606551958  0.8900466054609202 12.5174316141801594
  3.1268964411647260  1.7546457051264015 14.9986247417994214
  4.6246224872562660  4.4499061114069756 15.0192493383471568
  6.1222294402400639  1.7547234489171397 14.9987516435211248
  7.7076362114604331  4.5022614865438682 14.9996528485276190
  4.6246951342798273  0.8894057452048719 16.2268278216027184
