Co Tl Co Tl Co Tl  H 
 1.0000000000000000
     5.3363776223610939    0.0000000000000000    0.0000000000000000
    -2.6681888111805470    4.6214386729551071    0.0000000000000000
     0.0000000000000000    0.0000000000000000   24.3571332763211643
 Co  Tl  Co  Tl  Co  Tl  H  
   3   1   3   1   3   1   1
Cartesian
  0.0000000000000000  0.0000000000000000  9.9999992923310419
 -1.3340945055902664  2.3107194364775472  9.9999992923310419
  1.3340945055902664  2.3107194364775472  9.9999992923310419
  2.6681890111805329  0.0000000000000000  9.9999992923310419
  2.6681890111805329  1.5404795909850335 12.1785664381605958
  1.3340945055902664  3.8511990274625809 12.1785664381605958
 -1.3340945055902664  3.8511990274625809 12.1785664381605958
  0.0000000000000000  1.5404795909850335 12.1785664381605958
  0.0010950999225032  3.2395428707475911 14.2119932942612817
  1.4728296957724070  0.6916379510549258 14.2113020943101951
  3.8646661265095554  0.6909104511064086 14.2108738943404980
  2.6683769111672357  3.0808777819758273 15.2157630232276073
  2.6677539112113235  3.0808491819778516 17.0156179958574505
