Zr Ga Zr Ga Zr Ga Zr  H 
 1.0000000000000000
     6.1664245636212449    0.0000000000000000    0.0000000000000000
     3.0832117818106579    5.3402796220849620    0.0000000000000000
     0.0000000000000000    0.0000000000000000   25.0348632283603187
 Zr  Ga  Zr  Ga  Zr  Ga  Zr  H  
   1   1   3   1   3   1   2   1
Cartesian
  0.0000000000000000  0.0000000000000000  9.9999994705735897
  1.5416058909053290  2.6701398110424810  9.9999994705735897
  3.0832122818106225  0.0000000000000000  9.9999994705735897
  4.6248181727159512  2.6701398110424810  9.9999994705735897
  6.1664242333711474  3.5601864165034010 12.5174316141801594
  4.6248183424658187  0.8900466054609202 12.5174316141801594
  3.0832119515605250  3.5601864165034010 12.5174316141801594
  1.5416060606551958  0.8900466054609202 12.5174316141801594
  3.1120619220983108  1.7634583200032401 14.9581193595253250
  4.6247191181845304  4.4502036664472389 14.9943283086418973
  6.1374219371074137  1.7634724183414425 14.9579080152099539
  7.7078041865751175  4.4840023015156945 14.9576319307382715
  1.5413032612881943  2.6701272720659284 16.1571927737311789
