Ir La Ir La Ir La  H 
 1.0000000000000000
     5.9005835824339874    0.0000000000000000    0.0000000000000000
    -2.9502917912169937    5.1100556383772000    0.0000000000000000
     0.0000000000000000    0.0000000000000000   24.8178052437208372
 Ir  La  Ir  La  Ir  La  H  
   3   1   3   1   3   1   1
Cartesian
  0.0000000000000000  0.0000000000000000  9.9999992923310419
 -1.4751459956084896  2.5550278191886000  9.9999992923310419
  1.4751459956084896  2.5550278191886000  9.9999992923310419
  2.9502919912169792  0.0000000000000000  9.9999992923310419
  2.9502919912169792  1.7033518794590665 12.4089026218604186
  1.4751459956084896  4.2583795986476742 12.4089026218604186
 -1.4751459956084896  4.2583795986476742 12.4089026218604186
  0.0000000000000000  1.7033518794590665 12.4089026218604186
 -0.0002058999854291  3.5166401511382754 14.5989730668759208
  1.5703627888702922  0.7965577436300771 14.5989069668805982
  4.3304862935449062  0.7969437436027611 14.5990149668729572
  2.9499456912414859  3.4065885589262854 15.5389029003600001
  2.9505295912001652  3.4066695589205533 17.7000488474223978
