Pb Cu Pb Cu Pb Cu  H 
 1.0000000000000000
     6.8040335184996348    0.0000000000000000    0.0000000000000000
    -3.4020167592498174    5.8924655830084722    0.0000000000000000
     0.0000000000000000    0.0000000000000000   25.5554691915186467
 Pb  Cu  Pb  Cu  Pb  Cu  H  
   3   1   3   1   3   1   1
Cartesian
  0.0000000000000000  0.0000000000000000  9.9999992923310419
 -1.7010083796249087  2.9462329915042220  9.9999992923310419
  1.7010083796249087  2.9462329915042220  9.9999992923310419
  3.4020168592498106  0.0000000000000000  9.9999992923310419
  3.4020168592498106  1.9641553610028124 12.7777343957593370
  1.7010083796249087  4.9103883525070353 12.7777343957593370
 -1.7010083796249087  4.9103883525070353 12.7777343957593370
  0.0000000000000000  1.9641553610028124 12.7777343957593370
 -0.0000446999968367  3.8704684260989448 15.4702940052152389
  1.6510499831603096  1.0110161284535220 15.4702286052198676
  5.1530916353316751  1.0108278284668473 15.4703224052132278
  3.4019354592555708  3.9285553219883154 14.9817244397897920
  3.4019727592529310  3.9283210220048956 16.5189199310072325
