Tc Nb Tc Nb Tc Nb Tc  H 
 1.0000000000000000
     5.6000996036983075    0.0000000000000000    0.0000000000000000
     2.8000498018491538    4.8498286567926563    0.0000000000000000
     0.0000000000000000    0.0000000000000000   24.5724612610830704
 Tc  Nb  Tc  Nb  Tc  Nb  Tc  H  
   1   1   3   1   3   1   2   1
Cartesian
  0.0000000000000000  0.0000000000000000  9.9999994235577034
  1.4000249009245769  2.4249143283963281  9.9999994235577034
  2.8000498018491538  0.0000000000000000  9.9999994235577034
  4.2000747027737306  2.4249143283963281  9.9999994235577034
  5.6000996064983575  3.2332191061450470 12.2862306305415352
  4.2000747055737806  0.8083047777487189 12.2862306305415352
  2.8000498046492037  3.2332191061450470 12.2862306305415352
  1.4000249037246266  0.8083047777487189 12.2862306305415352
  2.8050467679254840  1.6134710810289390 14.4378186332552456
  4.2109997046864525  4.0349003904500975 14.4690895720285582
  5.6553134777354934  1.6717660263334155 14.5093684556581923
  6.9797811151941733  3.9662776137752647 14.5094313611590202
  2.6745690700415361  4.9222675405454011 15.5396445280648621
