Mn Re Mn Re Mn Re  H 
 1.0000000000000000
     5.2866906258772888    0.0000000000000000    0.0000000000000000
     2.5926428165267028    4.6073096739549735    0.0000000000000000
     0.0000000000000000    0.0000000000000000   24.3296322782673258
 Mn  Re  Mn  Re  Mn  Re  H  
   2   2   2   2   2   2   1
Cartesian
  0.0000000000000000  0.0000000000000000  9.9999992923310419
  3.9396664212020172  2.3036548369774867  9.9999992923310419
  2.6433453129386444  0.0000000000000000  9.9999992923310419
  1.2963212082633657  2.3036548369774867  9.9999992923310419
  5.2866905258772956  3.0913048812379342 12.1648163391336492
  1.3470241046752787  0.7876500442604475 12.1648163391336492
  2.6433453129386444  3.0913048812379342 12.1648163391336492
  3.9903693176139305  0.7876500442604475 12.1648163391336492
  2.6934943093897554  1.5749519885455288 14.3656198833896021
  6.6468190296252176  3.8866183249560664 14.4038389806849558
  5.3541493211034457  1.5843203878825562 14.2252003933266540
  4.0066080164647682  3.8892317247711241 14.2246853933630995
  2.7004072089005509  1.5790441882559367 15.9605685705200280
