Ir Au Ir Au Ir Au Ir  H 
 1.0000000000000000
     5.5912086043274956    0.0000000000000000    0.0000000000000000
     2.7956048021637123    4.8421286573375619    0.0000000000000000
     0.0000000000000000    0.0000000000000000   24.5652012615968403
 Ir  Au  Ir  Au  Ir  Au  Ir  H  
   1   1   3   1   3   1   2   1
Cartesian
  0.0000000000000000  0.0000000000000000  9.9999992800074953
  1.3978024010818562  2.4210643286687810  9.9999992800074953
  2.7956043021637478  0.0000000000000000  9.9999992800074953
  4.1934067032456035  2.4210643286687810  9.9999992800074953
  5.5912089404564096  3.2280857731724173 12.2826006307984201
  4.1934065393745534  0.8070214445036364 12.2826006307984201
  2.7956046382926618  3.2280857731724173 12.2826006307984201
  1.3978022372108057  0.8070214445036364 12.2826006307984201
  2.8000992516824330  1.6050616506680995 14.4989418711832201
  4.1935097695806212  4.0260544514123540 14.7967619699799879
  5.5867164743651054  1.6049644981987188 14.4989005525146979
  6.9891207051765072  4.0479286126737595 14.5074119280130169
  1.3980338103994387  2.4247043214128756 15.4628328350238373
