Mo Cd Mo Cd Mo Cd Mo  H 
 1.0000000000000000
     5.5473456074315441    0.0000000000000000    0.0000000000000000
    -2.7736728037157721    5.4291706157944217    0.0000000000000000
     0.0000000000000000    0.0000000000000000   24.7687742471906098
 Mo  Cd  Mo  Cd  Mo  Cd  Mo  H  
   1   2   2   2   2   2   1   1
Cartesian
  0.0000000000000000  0.0000000000000000  9.9999991255555170
 -1.3868364018578860  2.7145853078972109  9.9999991255555170
  1.3868364018578860  2.7145853078972109  9.9999991255555170
  2.7736728037157721  0.0000000000000000  9.9999991255555170
  2.7736728037157721  1.4170233249461350 12.3843871235953049
  1.3868364018578863  4.1316086328433457 12.3843871235953049
 -1.3868364018578858  4.1316086328433457 12.3843871235953049
  0.0000000000000000  1.4170233249461350 12.3843871235953049
  0.0020076980959145  2.5907813732058904 14.6219789437489140
  1.4057933210391067 -0.0908126239104171 15.1206811970681887
  4.1398793456408756 -0.0889642301992462 15.1201177817603902
  2.7703519712517402  2.6013545635383966 14.5480683021759418
 -0.0006755529744003  1.5246131393184563 16.0332436113075119
