Ga Cd Ga Cd Ga Cd Ga  H 
 1.0000000000000000
     6.3003955541405325    0.0000000000000000    0.0000000000000000
    -3.1501977770702663    5.5297556086763331    0.0000000000000000
     0.0000000000000000    0.0000000000000000   25.1780782182254370
 Ga  Cd  Ga  Cd  Ga  Cd  Ga  H  
   1   2   2   2   2   2   1   1
Cartesian
  0.0000000000000000  0.0000000000000000  9.9999994071071932
 -1.5750988885351331  2.7648778043381665  9.9999994071071932
  1.5750988885351331  2.7648778043381665  9.9999994071071932
  3.1501977770702663  0.0000000000000000  9.9999994071071932
  3.1501977802204637  1.7946083439692613 12.5890391091127185
  1.5750988916853310  4.5594861483074274 12.5890391091127185
 -1.5750988853849350  4.5594861483074274 12.5890391091127185
  0.0000000031501979  1.7946083439692613 12.5890391091127185
  0.0008285240667543  3.6384330445980453 15.1781563847772336
  1.6462972015382094  0.7794340276211175 15.3253803126111308
  4.6528512208043589  0.7814655602961442 15.3248896170447377
  3.1495852746658772  3.6104047373082175 15.1171726622371843
  0.0000723946951147  1.8577749855964178 16.0551347070043562
