Mo Ag Mo Ag Mo Ag Mo  H 
 1.0000000000000000
     5.3639056204130231    0.0000000000000000    0.0000000000000000
    -2.6819528102065116    5.3675356201561399    0.0000000000000000
     0.0000000000000000    0.0000000000000000   24.6463242558560154
 Mo  Ag  Mo  Ag  Mo  Ag  Mo  H  
   1   2   2   2   2   2   1   1
Cartesian
  0.0000000000000000  0.0000000000000000  9.9999994803393992
 -1.3409764051032558  2.6837678100780700  9.9999994803393992
  1.3409764051032558  2.6837678100780700  9.9999994803393992
  0.0000000000000000  5.3675356201561399  9.9999994803393992
  2.6819528075245587  1.3400692861693220 12.3231621279280077
  1.3409764024213029  4.0238370962473917 12.3231621279280077
 -1.3409764077852087  4.0238370962473917 12.3231621279280077
 -0.0000000026819529  1.3400692861693220 12.3231621279280077
  0.0259645564115578  2.5278601751329459 14.4688547278372006
 -1.3413514896135275  5.2707010425829193 14.8580747301527456
  1.3406519558620404  5.2706073361460621 14.8099419623068407
  2.6574091282562260  2.5273959638148367 14.4689114390293163
 -1.3400885204878616  2.5268877064994286 15.7726291622759209
