 Y Tl  Y Tl  Y Tl  Y  H 
 1.0000000000000000
     6.6386585302027097    0.0000000000000000    0.0000000000000000
     2.6272428140781683    6.0966695685575889    0.0000000000000000
     0.0000000000000000    0.0000000000000000   25.4957271957464044
 Y   Tl  Y   Tl  Y   Tl  Y   H  
   1   2   2   2   2   2   1   1
Cartesian
  0.0000000000000000  0.0000000000000000  9.9999994152730043
  1.3136214070390841  3.0483347842787945  9.9999994152730043
  3.3193292651013548  0.0000000000000000  9.9999994152730043
  4.6329506721404385  3.0483347842787945  9.9999994152730043
  6.6386585738234594  4.3680270487721833 12.7478635978732022
  5.3250371667843748  1.3196922644933884 12.7478635978732022
  3.3193293087221036  4.3680270487721833 12.7478635978732022
  2.0057079016830199  1.3196922644933884 12.7478635978732022
  3.9878059023146690  2.6231367155898142 15.5773667306807226
  5.1519649695667589  5.6826702039456309 15.7240027030999734
  7.2582524830143749  2.4814115594781838 15.7245873966117529
  8.5512603978938699  5.6263822327103661 15.3762134487646218
  2.8104557707699858  1.8498833904602654 17.0659103126019929
