Cu Ru Cu Ru Cu Ru Cu  H 
 1.0000000000000000
     5.2507646284196605    0.0000000000000000    0.0000000000000000
     2.6253818142098657    4.5472956782019782    0.0000000000000000
     0.0000000000000000    0.0000000000000000   24.2872302812679841
 Cu  Ru  Cu  Ru  Cu  Ru  Cu  H  
   1   1   3   1   3   1   2   1
Cartesian
  0.0000000000000000  0.0000000000000000  9.9999994716088523
  1.3126909071049329  2.2736478391009891  9.9999994716088523
  2.6253823142098303  0.0000000000000000  9.9999994716088523
  3.9380732213147631  2.2736478391009891  9.9999994716088523
  5.2507642977117328  3.0315304536504173 12.1436151406339921
  3.9380733906068000  0.7578826145494282 12.1436151406339921
  2.6253819835019025  3.0315304536504173 12.1436151406339921
  1.3126910763969697  0.7578826145494282 12.1436151406339921
  2.5759880204255685  1.5440192460050393 14.2748868248686751
  3.9099625016078257  3.8054847026395935 14.2413180109503497
  5.2279700528861595  1.5589036133742786 14.3266834236981673
  6.5144880035873420  3.7874143407628575 14.3265463708576917
  2.7057973846018988  4.5009815262870392 15.2472392042835914
