Hf Re Hf Re Hf Re Hf  H 
 1.0000000000000000
     5.6739295984735874    0.0000000000000000    0.0000000000000000
     1.9087288649251737    5.3432416218753502    0.0000000000000000
     0.0000000000000000    0.0000000000000000   24.6379632564477014
 Hf  Re  Hf  Re  Hf  Re  Hf  H  
   1   2   2   2   2   2   1   1
Cartesian
  0.0000000000000000  0.0000000000000000  9.9999994650040911
  0.9543644324625868  2.6716208109376751  9.9999994650040911
  2.8369647992367937  0.0000000000000000  9.9999994650040911
  3.7913292316993807  2.6716208109376751  9.9999994650040911
  5.6739291772443643  3.9982249874189950 12.3189816282238507
  4.7195647447817777  1.3266041764813199 12.3189816282238507
  2.8369643780075706  3.9982249874189950 12.3189816282238507
  1.8825999455449836  1.3266041764813199 12.3189816282238507
  3.7414392540659644  2.6407148334915456 14.6311853703545349
  4.6811877293569184  5.2976102529326692 14.5409207180117175
  6.5831162537670469  2.6400412858256583 14.5714303267575520
  7.5368875091514989  5.3068189932437484 14.6313946205764704
  5.4426137741701313  1.8365538970353725 15.7494232375989345
