Cu La Cu La Cu La Cu  H 
 1.0000000000000000
     6.3898875478074615    0.0000000000000000    0.0000000000000000
     2.1466958480849878    6.0185015740892958    0.0000000000000000
     0.0000000000000000    0.0000000000000000   25.2223512150923703
 Cu  La  Cu  La  Cu  La  Cu  H  
   1   2   2   2   2   2   1   1
Cartesian
  0.0000000000000000  0.0000000000000000  9.9999994133941907
  1.0733479240424939  3.0092507870446479  9.9999994133941907
  3.1949437739037307  0.0000000000000000  9.9999994133941907
  4.2682916979462249  3.0092507870446479  9.9999994133941907
  6.3898877705471175  4.5050282790883767 12.6111756075461852
  5.3165398465046234  1.4957774920437286 12.6111756075461852
  3.1949439966433868  4.5050282790883767 12.6111756075461852
  2.1215960726008931  1.4957774920437286 12.6111756075461852
  4.2825733478769967  3.0972572651980141 14.9901700454898190
  5.4261046845236685  6.0781044984134480 15.2337662019629203
  7.4204262196115378  2.9796659096894680 15.2326038299071715
  8.6264711752944407  6.0021426127387443 14.9904773293946736
  5.3468085192530435  1.5199510263006164 15.1337576372740354
