Ru Ag Ru Ag Ru Ag Ru  H 
 1.0000000000000000
     5.5222776092055286    0.0000000000000000    0.0000000000000000
     2.7611388046027643    4.7824326615620620    0.0000000000000000
     0.0000000000000000    0.0000000000000000   24.5089192655797419
 Ru  Ag  Ru  Ag  Ru  Ag  Ru  H  
   1   1   3   1   3   1   2   1
Cartesian
  0.0000000000000000  0.0000000000000000  9.9999990963805470
  1.3805694023013821  2.3912163307810310  9.9999990963805470
  2.7611388046027643  0.0000000000000000  9.9999990963805470
  4.1417082069041466  2.3912163307810310  9.9999990963805470
  5.5222776119666674  3.1882884426355189 12.2544596327898709
  4.1417082096652855  0.7970721118544879 12.2544596327898709
  2.7611388073639032  3.1882884426355189 12.2544596327898709
  1.3805694050625208  0.7970721118544879 12.2544596327898709
  2.7316195828494467  1.6102551250389681 14.3922982757564224
  4.1415757854482163  3.9832033760663847 14.7175838874265388
  5.5515523348788367  1.6107011777508793 14.3922843056724385
  6.9031033224998648  3.9565867614357590 14.3898472857941844
  1.3803697609212542  2.3926949346167365 15.4548019832247636
