La Cd La Cd La Cd  H 
 1.0000000000000000
     7.2364224879008079    0.0000000000000000    0.0000000000000000
    -3.6182107439504394    6.2669255565091007    0.0000000000000000
     0.0000000000000000    0.0000000000000000   25.9085121665348908
 La  Cd  La  Cd  La  Cd  H  
   3   1   3   1   3   1   1
Cartesian
  0.0000000000000000  0.0000000000000000  9.9999992923310419
 -1.8091054719752127  3.1334626782545576  9.9999992923310419
  1.8091054719752127  3.1334626782545576  9.9999992923310419
  3.6182110439504180  0.0000000000000000  9.9999992923310419
  3.6182110439504180  2.0889751521697026 12.9542561832674377
  1.8091054719752127  5.2224378304242602 12.9542561832674377
 -1.8091054719752127  5.2224378304242602 12.9542561832674377
  0.0000000000000000  2.0889751521697026 12.9542561832674377
  0.0010763999238265  4.0972354100513479 15.9595576705915647
  1.7315175774658673  1.0885534229664477 15.9576244707283728
  5.5074770102529209  1.0893995229065720 15.9569441707765147
  3.6189948438949506  4.1847481038583458 15.7272917870283031
  0.0007626999460261  2.1099826506830670 17.3064369752770908
