Sc Pd Sc Pd Sc Pd  H 
 1.0000000000000000
     6.1781815627892378    0.0000000000000000    0.0000000000000000
    -3.0890907813946189    5.3504626213643425    0.0000000000000000
     0.0000000000000000    0.0000000000000000   25.0444632276809536
 Sc  Pd  Sc  Pd  Sc  Pd  H  
   3   1   3   1   3   1   1
Cartesian
  0.0000000000000000  0.0000000000000000  9.9999992923310419
 -1.5445454906973024  2.6752312106821781  9.9999992923310419
  1.5445454906973024  2.6752312106821781  9.9999992923310419
  3.0890908813946121  0.0000000000000000  9.9999992923310419
  3.0890908813946121  1.7834874737881188 12.5222314138404922
  1.5445454906973024  4.4587186844702975 12.5222314138404922
 -1.5445454906973024  4.4587186844702975 12.5222314138404922
  0.0000000000000000  1.7834874737881188 12.5222314138404922
  0.0006307999553602  3.5419880493444831 15.0825471326548826
  1.5242236921354131  0.9040515360230746 15.0823555326684424
  4.6547365705987183  0.9036536360512328 15.0839821325533325
  3.0886480814259478  3.5673418475502734 14.8270635507346640
  3.0887848814162666  3.5670420475714897 16.5110380315650076
