Hf Re Hf Re Hf Re  H 
 1.0000000000000000
     5.6739295984735874    0.0000000000000000    0.0000000000000000
     1.9087288649251737    5.3432416218753502    0.0000000000000000
     0.0000000000000000    0.0000000000000000   24.6379632564477014
 Hf  Re  Hf  Re  Hf  Re  H  
   2   2   2   2   2   2   1
Cartesian
  0.0000000000000000  0.0000000000000000  9.9999992923310419
  3.7913293316993735  2.6716206109376892  9.9999992923310419
  2.8369645992368078  0.0000000000000000  9.9999992923310419
  0.9543646324625726  2.6716206109376892  9.9999992923310419
  5.6739292984736087  3.9982246170580349 12.3189814282238626
  1.8825999667742350  1.3266040061203459 12.3189814282238626
  2.8369645992368078  3.9982246170580349 12.3189814282238626
  4.7195645660110426  1.3266040061203459 12.3189814282238626
  3.7733834329693492  2.6574087119434213 14.6444144636601727
  7.5632865647696503  5.3311229227329529 14.6444143636601805
  6.6083623323466787  2.6575531119332028 14.6830271609276739
  4.7250810656206568  5.3287295229023268 14.5180300726040059
  6.5994978329739915  2.6513230123740876 16.3918301400009838
