Zn Ni Zn Ni Zn Ni Zn  H 
 1.0000000000000000
     5.0742746409093096    0.0000000000000000    0.0000000000000000
     2.1420588484131340    4.5999836744734113    0.0000000000000000
     0.0000000000000000    0.0000000000000000   24.2031242872199073
 Zn  Ni  Zn  Ni  Zn  Ni  Zn  H  
   1   2   1   1   2   3   2   1
Cartesian
  3.2130883485680912  0.4308786031945526  9.9999994160476842
  0.6759510281134367  0.4308786031945526  9.9999994160476842
  4.2841177727746578  2.7308704404312580  9.9999994160476842
  1.7469804523200034  2.7308704404312580  9.9999994160476842
  2.1420588863873289  1.3654352202156290 12.1015621436099536
  4.6791962068419837  1.3654352202156290 12.1015621436099536
  3.2130883105938963  3.6654270574523351 12.1015621436099536
  5.7502256310485507  3.6654270574523351 12.1015621436099536
  3.6672975882022820  2.2965590442198258 14.1490346640776750
  0.0321065119650406  0.0302546262251179 14.1528863008704935
  2.5659297795651708  0.0039604295442767 14.3013897736064539
  6.2333056515774583  2.3406823498244442 14.3070005902849662
 -0.4245457794260058  1.3300943414418256 15.0913303275615167
