Ti Sn Ti Sn Ti Sn Ti  H 
 1.0000000000000000
     5.8986195825729730    0.0000000000000000    0.0000000000000000
     2.9493097912864865    5.1083546384975742    0.0000000000000000
     0.0000000000000000    0.0000000000000000   24.8162012438343496
 Ti  Sn  Ti  Sn  Ti  Sn  Ti  H  
   1   1   3   1   3   1   2   1
Cartesian
  0.0000000000000000  0.0000000000000000  9.9999993126532409
  1.4746548956432433  2.5541773192487871  9.9999993126532409
  2.9493097912864865  0.0000000000000000  9.9999993126532409
  4.4239646869297298  2.5541773192487871  9.9999993126532409
  5.8986195855222823  3.4055697607011677 12.4081006219171748
  4.4239646898790390  0.8513924414523806 12.4081006219171748
  2.9493097942357962  3.4055697607011677 12.4081006219171748
  1.4746548985925529  0.8513924414523806 12.4081006219171748
  2.9520958774259940  1.6964820978930448 14.7066019228737535
  4.4253047913633843  4.2580232125203183 15.0390416407674508
  5.8918451035123720  1.6987841370440466 14.7062505502803411
  7.3693998018327447  4.2626702010012858 14.7066632188908244
  7.3721220619590593  5.9590458152418906 15.7027676691534399
