Re Sc Re Sc Re Sc Re  H 
 1.0000000000000000
     5.6638235991887571    0.0000000000000000    0.0000000000000000
     2.8319117995943786    4.9050146528873144    0.0000000000000000
     0.0000000000000000    0.0000000000000000   24.6244912574010719
 Re  Sc  Re  Sc  Re  Sc  Re  H  
   1   1   3   1   3   1   2   1
Cartesian
  0.0000000000000000  0.0000000000000000  9.9999994726383576
  1.4159558997971893  2.4525073264436572  9.9999994726383576
  2.8319117995943786  0.0000000000000000  9.9999994726383576
  4.2478676993915681  2.4525073264436572  9.9999994726383576
  5.6638236020206687  3.2700097702265478 12.3122456287005360
  4.2478677022234796  0.8175024437828906 12.3122456287005360
  2.8319118024262901  3.2700097702265478 12.3122456287005360
  1.4159559026291009  0.8175024437828906 12.3122456287005360
  2.8029345792791509  1.6513904617948649 14.4405629394872115
  4.2473353254604502  4.0875059110656098 15.0073550985471744
  5.6920628855910698  1.6517535113594128 14.4409651066784264
  7.0789949546367223  4.0550086291955711 14.4403012550186194
  1.4157219272443067  2.4523251247693612 15.4848023883493493
