Pb Ga Pb Ga Pb Ga Pb  H 
 1.0000000000000000
     7.0002935046109247    0.0000000000000000    0.0000000000000000
     3.5001467523054623    6.0624315709805066    0.0000000000000000
     0.0000000000000000    0.0000000000000000   25.7157141801786047
 Pb  Ga  Pb  Ga  Pb  Ga  Pb  H  
   1   1   3   1   3   1   2   1
Cartesian
  0.0000000000000000  0.0000000000000000  9.9999994150520575
  1.7500733761527312  3.0312157854902533  9.9999994150520575
  3.5001467523054623  0.0000000000000000  9.9999994150520575
  5.2502201284581940  3.0312157854902533  9.9999994150520575
  7.0002935081110724  4.0416210493411482 12.8578570900893023
  5.2502201319583408  1.0104052638508949 12.8578570900893023
  3.5001467558056092  4.0416210493411482 12.8578570900893023
  1.7500733796528778  1.0104052638508949 12.8578570900893023
  3.4856545766851728  2.1000826525515310 15.6839312738912717
  5.2515576535372386  5.0996060342662535 15.6369238998513307
  7.0192681116682341  2.0968364811298290 15.6872072758678271
  8.7498110329583625  5.2356706603894771 15.5417508131419133
  1.7444470372545637  0.3793638455979484 16.7683616550836945
