 Y Ta  Y Ta  Y Ta  Y  H 
 1.0000000000000000
     6.7585695217169812    0.0000000000000000    0.0000000000000000
     3.3792847608584906    5.8530935857947064    0.0000000000000000
     0.0000000000000000    0.0000000000000000   25.5183481941455881
 Y   Ta  Y   Ta  Y   Ta  Y   H  
   1   1   3   1   3   1   2   1
Cartesian
  0.0000000000000000  0.0000000000000000  9.9999994067138864
  1.6896423804292453  2.9265467928973532  9.9999994067138864
  3.3792847608584906  0.0000000000000000  9.9999994067138864
  5.0689271412877357  2.9265467928973532  9.9999994067138864
  6.7585695250962665  3.9020623924808353 12.7591740970727940
  5.0689271446670210  0.9755155995834822 12.7591740970727940
  3.3792847642377755  3.9020623924808353 12.7591740970727940
  1.6896423838085299  0.9755155995834822 12.7591740970727940
  3.4031201978528758  1.9372721974536844 15.4446198743934193
  4.9908442589222295  4.9228644541068309 15.2369852920457767
  6.7083052764656159  1.9159873114201638 15.4924493992623233
  8.4535007497604653  4.9387061386983699 15.4925318235269902
  3.6732412638483947  5.6832895404550579 16.4840769204494642
