Zn Ir Zn Ir Zn Ir Zn  H 
 1.0000000000000000
     5.4461626145919508    0.0000000000000000    0.0000000000000000
     2.7230808072960109    4.7165146662268747    0.0000000000000000
     0.0000000000000000    0.0000000000000000   24.4467712699777628
 Zn  Ir  Zn  Ir  Zn  Ir  Zn  H  
   1   1   3   1   3   1   2   1
Cartesian
  0.0000000000000000  0.0000000000000000  9.9999991169335836
  1.3615404036480054  2.3582573331134373  9.9999991169335836
  2.7230813072959754  0.0000000000000000  9.9999991169335836
  4.0846217109439813  2.3582573331134373  9.9999991169335836
  5.4461622839817228  3.1443431123900880 12.2233856349888814
  4.0846218803337164  0.7860857792766506 12.2233856349888814
  2.7230809766857469  3.1443431123900880 12.2233856349888814
  1.3615405730377412  0.7860857792766506 12.2233856349888814
  2.7295630657682417  1.5681534559458199 14.6562423324825133
  4.0846366165434898  3.9303239256328419 14.2238177946361528
  5.4395721994836412  1.5679671630495333 14.6559549851330040
  6.8076802492497475  3.9374914290270349 14.6559513181173138
  4.0842527502407897  0.7868709374731374 15.7290350823219196
