 V Cd  V Cd  V Cd  V  H 
 1.0000000000000000
     5.5698506058389343    0.0000000000000000    0.0000000000000000
     2.7849248029195026    4.8236316586465371    0.0000000000000000
     0.0000000000000000    0.0000000000000000   24.5477622628309433
 V   Cd  V   Cd  V   Cd  V   H  
   1   1   3   1   3   1   2   1
Cartesian
  0.0000000000000000  0.0000000000000000  9.9999993290681601
  1.3924624014597513  2.4118158293232685  9.9999993290681601
  2.7849253029194672  0.0000000000000000  9.9999993290681601
  4.1773877043792185  2.4118158293232685  9.9999993290681601
  5.5698502752905501  3.2157544407055685 12.2738811314154717
  4.1773878738307983  0.8039386113823001 12.2738811314154717
  2.7849249723710825  3.2157544407055685 12.2738811314154717
  1.3924625709113312  0.8039386113823001 12.2738811314154717
  2.6905322235271019  1.6621041280987303 14.3568459776159969
  4.1769160220105839  4.0196828452832793 14.9560510857275677
  5.6634941706927853  1.6620314504405291 14.3571175004143861
  6.9619798332769607  3.9113761987932927 14.3570631516687364
  4.1768841978148679  0.8038951504610556 15.2585725773723855
