La Os La Os La Os  H 
 1.0000000000000000
     6.7981165189183628    0.0000000000000000    0.0000000000000000
    -3.3990577594592168    5.8873415833710823    0.0000000000000000
     0.0000000000000000    0.0000000000000000   25.5506371918605915
 La  Os  La  Os  La  Os  H  
   3   1   3   1   3   1   1
Cartesian
  0.0000000000000000  0.0000000000000000  9.9999992923310419
 -1.6995290797295941  2.9436705916855552  9.9999992923310419
  1.6995290797295941  2.9436705916855552  9.9999992923310419
  3.3990580594591955  0.0000000000000000  9.9999992923310419
  3.3990580594591955  1.9624470611237035 12.7753185959302957
  1.6995290797295941  4.9061177528092514 12.7753185959302957
 -1.6995290797295941  4.9061177528092514 12.7753185959302957
  0.0000000000000000  1.9624470611237035 12.7753185959302957
  0.0001855999868657  3.8154723299908482 15.6514829923930545
  1.6046101864467102  1.0359660266878949 15.6513552924020924
  5.1935007324720486  1.0361463266751356 15.6513374924033535
  3.3991618594518496  3.9249911222405429 14.9515478419252972
  0.0000384999972755  1.9624971611201580 17.1966038830496366
