Ga Zr Ga Zr Ga Zr Ga  H 
 1.0000000000000000
     5.8533875857739011    0.0000000000000000    0.0000000000000000
     2.9266937928869505    5.0691816412697257    0.0000000000000000
     0.0000000000000000    0.0000000000000000   24.7792692464479138
 Ga  Zr  Ga  Zr  Ga  Zr  Ga  H  
   1   1   3   1   3   1   2   1
Cartesian
  0.0000000000000000  0.0000000000000000  9.9999993323129157
  1.4633468964434753  2.5345908206348629  9.9999993323129157
  2.9266937928869505  0.0000000000000000  9.9999993323129157
  4.3900406893304256  2.5345908206348629  9.9999993323129157
  5.8533875887005946  3.3794544292028776 12.3896346232239569
  4.3900406922571191  0.8448636085680148 12.3896346232239569
  2.9266937958136441  3.3794544292028776 12.3896346232239569
  1.4633468993701690  0.8448636085680148 12.3896346232239569
  2.9044200610016571  1.7025237173341650 15.0380476779040055
  4.2912408071250212  4.2813231701442573 14.6871516178515211
  5.8445148481964520  1.7759460027545793 14.9407374804523965
  7.2377564590519485  4.1890516549164909 14.9410021973857550
  2.9493391622034517  5.0549554899116664 16.0115034260471347
