Al Hf Al Hf Al Hf Al  H 
 1.0000000000000000
     5.7693285917224957    0.0000000000000000    0.0000000000000000
     2.8846637958612833    4.9963846464213431    0.0000000000000000
     0.0000000000000000    0.0000000000000000   24.7106352513049252
 Al  Hf  Al  Hf  Al  Hf  Al  H  
   1   1   3   1   3   1   2   1
Cartesian
  0.0000000000000000  0.0000000000000000  9.9999991361198823
  1.4423318979306416  2.4981923232106715  9.9999991361198823
  2.8846642958612478  0.0000000000000000  9.9999991361198823
  4.3269961937918895  2.4981923232106715  9.9999991361198823
  5.7693282612738503  3.3309230992796901 12.3553176256524626
  4.3269963633432083  0.8327307760690187 12.3553176256524626
  2.8846639654126021  3.3309230992796901 12.3553176256524626
  1.4423320674819604  0.8327307760690187 12.3553176256524626
  2.9111334497288537  1.6500879214038466 14.9762920249728264
  4.3265457511976777  4.1638899295413285 14.5727763212796120
  5.7428030903176417  1.6499372953959111 14.9762530563010348
  7.2118362498159350  4.1943978591887623 14.9764127858473000
  4.3274175043911711  0.8301984434495191 16.1023481613416735
