Fe Ta Fe Ta Fe Ta  H 
 1.0000000000000000
     5.3164046237745213    0.0000000000000000    0.0000000000000000
     1.7643888751396675    5.0150866450978615    0.0000000000000000
     0.0000000000000000    0.0000000000000000   24.3384292776447886
 Fe  Ta  Fe  Ta  Fe  Ta  H  
   2   2   2   2   2   2   1
Cartesian
  0.0000000000000000  0.0000000000000000  9.9999992923310419
  3.5403969494570804  2.5075434225489235  9.9999992923310419
  2.6582025118872465  0.0000000000000000  9.9999992923310419
  0.8821944375698337  2.5075434225489235  9.9999992923310419
  5.3164051237744863  3.7654298335322007 12.1692147388223866
  1.7760080743174127  1.2578864109832770 12.1692147388223866
  2.6582025118872465  3.7654298335322007 12.1692147388223866
  4.4342106862046524  1.2578864109832770 12.1692147388223866
  3.5495126488119904  2.5141105220841897 14.1106200014351550
  0.0094993993277570  0.0065948995332994 14.1104515014470770
  0.8900931370108673  2.5131245221539662 14.5200875724584026
  2.6659421113395392  0.0054590996136764 14.3141505870319268
  0.8940226367327887  2.5159394219547644 16.3155299454005132
