La Au La Au La Au La  H 
 1.0000000000000000
     6.5535635362246190    0.0000000000000000    0.0000000000000000
     2.4108818293893646    6.0940005687464662    0.0000000000000000
     0.0000000000000000    0.0000000000000000   25.4042532022197314
 La  Au  La  Au  La  Au  La  H  
   1   2   2   2   2   2   1   1
Cartesian
  0.0000000000000000  0.0000000000000000  9.9999994240220378
  1.2054409146946823  3.0470002843732331  9.9999994240220378
  3.2767817681123095  0.0000000000000000  9.9999994240220378
  4.4822226828069915  3.0470002843732331  9.9999994240220378
  6.5535635739518625  4.4550910310828158 12.7021266011098657
  5.3481226592571804  1.4080907467095829 12.7021266011098657
  3.2767818058395530  4.4550910310828158 12.7021266011098657
  2.0713408911448705  1.4080907467095829 12.7021266011098657
  4.1441233086471225  2.8161790862889409 15.4827077010218535
  5.6652319665791895  5.8283979721080641 15.2984389919939332
  7.5052798817019069  3.1219122733006879 15.2990109433505292
  9.0064783652367133  6.1216093042551591 15.4715306679532318
  2.1058982530723771  1.4369865351383955 16.1334243095637824
