Al Re Al Re Al Re Al  H 
 1.0000000000000000
     5.5043836104718311    0.0000000000000000    0.0000000000000000
     2.7521918052359156    4.7669356626587369    0.0000000000000000
     0.0000000000000000    0.0000000000000000   24.4943092666136444
 Al  Re  Al  Re  Al  Re  Al  H  
   1   1   3   1   3   1   2   1
Cartesian
  0.0000000000000000  0.0000000000000000  9.9999993781821832
  1.3760959026179578  2.3834678313293685  9.9999993781821832
  2.7521918052359156  0.0000000000000000  9.9999993781821832
  4.1282877078538736  2.3834678313293685  9.9999993781821832
  5.5043836132240234  3.1779571100281365 12.2471546333068222
  4.1282877106060649  0.7944892786987680 12.2471546333068222
  2.7521918079881074  3.1779571100281365 12.2471546333068222
  1.3760959053701494  0.7944892786987680 12.2471546333068222
  2.7750457362717977  1.5756575558995340 14.6218667717942985
  4.1281415196817548  3.9723055305450088 14.2878318262310984
  5.4811794988072258  1.5756271571508131 14.6218282177515118
  6.8802635953860936  3.9990378574379490 14.6218687313390419
  4.1281501588118310  0.7938950944692247 15.7261632874141455
