Zr Os Zr Os Zr Os  H 
 1.0000000000000000
     5.6922305971784812    0.0000000000000000    0.0000000000000000
     1.9054008651606860    5.3638546204166326    0.0000000000000000
     0.0000000000000000    0.0000000000000000   24.6501082555882363
 Zr  Os  Zr  Os  Zr  Os  H  
   2   2   2   2   2   2   1
Cartesian
  0.0000000000000000  0.0000000000000000  9.9999992923310419
  3.7988158311695766  2.6819275102083022  9.9999992923310419
  2.8461154985892270  0.0000000000000000  9.9999992923310419
  0.9527004325803430  2.6819275102083022  9.9999992923310419
  5.6922308971784616  4.0186603156118634 12.3250542277941104
  1.8934150660088838  1.3367328054035621 12.3250542277941104
  2.8461154985892270  4.0186603156118634 12.3250542277941104
  4.7395304645981176  1.3367328054035621 12.3250542277941104
  3.7912757317031662  2.6767410105753342 14.7116597589014333
  7.5902270628631552  5.3584821207968272 14.7116608589013556
  6.6351827304486823  2.6750164106973791 14.5726686687374016
  4.7424749643897446  5.3574675208686271 14.4776251754633343
  6.6364212303610364  2.6759135106338943 16.2362750510091338
