Pb Pt Pb Pt Pb Pt  H 
 1.0000000000000000
     6.7133775249150780    0.0000000000000000    0.0000000000000000
    -3.3566887624575390    5.8139555885643821    0.0000000000000000
     0.0000000000000000    0.0000000000000000   25.4814481967568831
 Pb  Pt  Pb  Pt  Pb  Pt  H  
   3   1   3   1   3   1   1
Cartesian
  0.0000000000000000  0.0000000000000000  9.9999992923310419
 -1.6783443812287695  2.9069776942821979  9.9999992923310419
  1.6783443812287695  2.9069776942821979  9.9999992923310419
  3.3566887624575390  0.0000000000000000  9.9999992923310419
  3.3566887624575390  1.9379851628547962 12.7407241983784356
  1.6783443812287695  4.8449628571369940 12.7407241983784356
 -1.6783443812287695  4.8449628571369940 12.7407241983784356
  0.0000000000000000  1.9379851628547962 12.7407241983784356
 -0.0000776999945014  3.8113382302834058 15.4644683056275056
  1.6226047851732881  1.0016454291166572 15.4645337056228769
  5.0914061396969661  1.0014245291322896 15.4642502056429407
  3.3566798624581695  3.8758921257151266 15.0853514324564326
  3.3567885624504767  3.8759577257104838 16.6837467193429525
