 V Zn  V Zn  V Zn  V  H 
 1.0000000000000000
     5.3666396202195470    0.0000000000000000    0.0000000000000000
     2.6833198101097735    4.6476456711005198    0.0000000000000000
     0.0000000000000000    0.0000000000000000   24.3818412745726576
 V   Zn  V   Zn  V   Zn  V   H  
   1   1   3   1   3   1   2   1
Cartesian
  0.0000000000000000  0.0000000000000000  9.9999992721461233
  1.3416599050548867  2.3238228355502599  9.9999992721461233
  2.6833198101097735  0.0000000000000000  9.9999992721461233
  4.0249797151646600  2.3238228355502599  9.9999992721461233
  5.3666396229028663  3.0984304489495615 12.1909206372863288
  4.0249797178479803  0.7746076133993018 12.1909206372863288
  2.6833198127930933  3.0984304489495615 12.1909206372863288
  1.3416599077382065  0.7746076133993018 12.1909206372863288
  2.6837357595634979  1.5487537109358178 14.2511392167977426
  4.0246458350473278  3.8728843554112289 14.5726473190347345
  5.3656284809154231  1.5488909884460051 14.2512824601152275
  6.7078772968523541  3.8739677262648082 14.2510844551822391
  1.3413232691681096  2.3238417840016612 15.3682136336297521
