Cr Fe Cr Fe Cr Fe Cr  H 
 1.0000000000000000
     4.9782136477072489    0.0000000000000000    0.0000000000000000
     2.4284578281455658    4.3457106924675220    0.0000000000000000
     0.0000000000000000    0.0000000000000000   24.0800892959267081
 Cr  Fe  Cr  Fe  Cr  Fe  Cr  H  
   1   2   2   2   2   2   1   1
Cartesian
  0.0000000000000000  0.0000000000000000  9.9999993970462917
  1.2142289140727829  2.1728553462337610  9.9999993970462917
  2.4891068238536245  0.0000000000000000  9.9999993970462917
  3.7033357379264071  2.1728553462337610  9.9999993970462917
  4.9782138578240183  2.9208636108495512 12.0400446479633541
  3.7639849437512347  0.7480082646157902 12.0400446479633541
  2.4891070339703933  2.9208636108495512 12.0400446479633541
  1.2748781198976105  0.7480082646157902 12.0400446479633541
  2.5494522413290603  1.4958372034798557 14.0078521834821021
  3.7406111039429755  3.6558453338848964 14.1050237236622422
  5.0157864047181171  1.4820834202521584 14.1047894243933918
  6.2292865823019756  3.6547947061764638 14.0764609571832526
  1.2957620170378219  0.7604163159590619 15.1438350193945883
