Hg Co Hg Co Hg Co  H 
 1.0000000000000000
     6.0785085698427874    0.0000000000000000    0.0000000000000000
    -3.0392547849213578    5.2641426274729408    0.0000000000000000
     0.0000000000000000    0.0000000000000000   24.9630802334401771
 Hg  Co  Hg  Co  Hg  Co  H  
   3   1   3   1   3   1   1
Cartesian
  0.0000000000000000  0.0000000000000000  9.9999992923310419
 -1.5196271924606932  2.6320715137364563  9.9999992923310419
  1.5196271924606932  2.6320715137364563  9.9999992923310419
  3.0392543849213864  0.0000000000000000  9.9999992923310419
  3.0392543849213864  1.7547143758243018 12.4815401167200886
  1.5196271924606932  4.3867858895607590 12.4815401167200886
 -1.5196271924606932  4.3867858895607590 12.4815401167200886
  0.0000000000000000  1.7547143758243018 12.4815401167200886
  0.0000013999999009  3.5001938523021288 15.3097577165758931
  1.5116227930271400  0.8819800375850062 15.3097647165753976
  4.5668836768157961  0.8819737375854521 15.3097576165759008
  3.0392379849225466  3.5094234516489791 14.7742315544734204
  3.0392534849214501  3.5094302516484976 16.2907353471551488
