Sn Zn Sn Zn Sn Zn Sn  H 
 1.0000000000000000
     6.6584295288035777    0.0000000000000000    0.0000000000000000
     3.3292147644017889    5.7663695919318956    0.0000000000000000
     0.0000000000000000    0.0000000000000000   25.4365841999317688
 Sn  Zn  Sn  Zn  Sn  Zn  Sn  H  
   1   1   3   1   3   1   2   1
Cartesian
  0.0000000000000000  0.0000000000000000  9.9999994979358497
  1.6646073822008944  2.8831847959659478  9.9999994979358497
  3.3292147644017889  0.0000000000000000  9.9999994979358497
  4.9938221466026835  2.8831847959659478  9.9999994979358497
  6.6584295321327920  3.8442463965433871 12.7182920999658844
  4.9938221499318978  0.9610616005774391 12.7182920999658844
  3.3292147677310036  3.8442463965433871 12.7182920999658844
  1.6646073855301089  0.9610616005774391 12.7182920999658844
  3.3807731948419182  1.8923490015437661 15.4575500942983570
  4.9938331063776875  4.8050469189711817 15.4101592197120461
  6.6052368733951869  1.8931651965612866 15.4587204569739800
  8.3226361601064216  4.8675883523300980 15.4588304702006418
  4.9945395724091233  0.9581970238561465 16.6706077966985724
