Mn Hg Mn Hg Mn Hg Mn  H 
 1.0000000000000000
     5.8713315845040599    0.0000000000000000    0.0000000000000000
     2.0607248541688890    5.4978126109368404    0.0000000000000000
     0.0000000000000000    0.0000000000000000   24.8218352434356468
 Mn  Hg  Mn  Hg  Mn  Hg  Mn  H  
   1   2   2   2   2   2   1   1
Cartesian
  0.0000000000000000  0.0000000000000000  9.9999992990647950
  1.0303624270844445  2.7489063054684202  9.9999992990647950
  2.9356657922520299  0.0000000000000000  9.9999992990647950
  3.9660282193364744  2.7489063054684202  9.9999992990647950
  5.8713313454425737  4.0694969537260857 12.4109176217178234
  4.8409689183581293  1.3205906482576657 12.4109176217178234
  2.9356655531905442  4.0694969537260857 12.4109176217178234
  1.9053031261060998  1.3205906482576657 12.4109176217178234
  4.0064791653570184  2.4861567144228145 14.6907117700081855
  4.6962770442785233  5.2891573781212076 14.8673155782427919
  7.0608668302747963  2.8590649376671782 14.9066334645557337
  7.7008654894059561  5.6286519085157130 14.6910525738060773
  4.9054467765539655  1.3655091297509219 15.6644226484721738
