Al Cu Al Cu Al Cu  H 
 1.0000000000000000
     5.5551566068787839    0.0000000000000000    0.0000000000000000
    -2.7775778034394274    4.8109066595470455    0.0000000000000000
     0.0000000000000000    0.0000000000000000   24.5357642636800044
 Al  Cu  Al  Cu  Al  Cu  H  
   3   1   3   1   3   1   1
Cartesian
  0.0000000000000000  0.0000000000000000  9.9999990922189408
 -1.3887889017197137  2.4054533297735228  9.9999990922189408
  1.3887894017196782  2.4054533297735228  9.9999990922189408
  0.0000004999999645  4.8109066595470455  9.9999990922189408
  2.7775784728836248  1.6036355515787131 12.2678821318400022
  1.3887895711639113  4.0090888813522358 12.2678821318400022
 -1.3887887322754806  4.0090888813522358 12.2678821318400022
  0.0000001694442329  1.6036355515787131 12.2678821318400022
  0.0269288941395924  3.2365092873517831 14.7007939241510250
  1.4275745144458698  0.8105195056152654 14.7007939241510250
  4.2929502609894881  0.8749004007762822 14.4950925294703321
  2.6448200046558865  3.1306229925669902 14.3763338117441055
 -0.6798685987072737  4.4183839769622839 15.8686588860616915
