Ga Ni Ga Ni Ga Ni  H 
 1.0000000000000000
     5.5791466051810854    0.0000000000000000    0.0000000000000000
    -2.7895728025905782    4.8316826580767929    0.0000000000000000
     0.0000000000000000    0.0000000000000000   24.5553522622938232
 Ga  Ni  Ga  Ni  Ga  Ni  H  
   3   1   3   1   3   1   1
Cartesian
  0.0000000000000000  0.0000000000000000  9.9999992923310419
 -1.3947865012952820  2.4158411290384105  9.9999992923310419
  1.3947865012952820  2.4158411290384105  9.9999992923310419
  0.0000000000000000  4.8316822580768211  9.9999992923310419
  2.7895731025905568  1.6105607860256046 12.2776761311469116
  1.3947865012952820  4.0264019150640147 12.2776761311469116
 -1.3947865012952820  4.0264019150640147 12.2776761311469116
  0.0000000000000000  1.6105607860256046 12.2776761311469116
 -0.0000902999936097  3.0494564841994154 14.9300300434480455
  1.3881948017617562  0.6932446509412246 14.6516964631448499
  4.1908038034298034  0.6931294509493768 14.6521572631122403
  2.7896319025863958  3.1971906737447244 14.2189558937685590
 -0.0000233999983441  3.0037901874310782 16.5205127308945166
