Ga Fe Ga Fe Ga Fe  H 
 1.0000000000000000
     5.4440106147442409    0.0000000000000000    0.0000000000000000
    -2.7220048073721554    4.7146516663587130    0.0000000000000000
     0.0000000000000000    0.0000000000000000   24.4450142701020994
 Ga  Fe  Ga  Fe  Ga  Fe  H  
   3   1   3   1   3   1   1
Cartesian
  0.0000000000000000  0.0000000000000000  9.9999991939324886
 -1.3610024036860777  2.3573258331793565  9.9999991939324886
  1.3610029036860427  2.3573258331793565  9.9999991939324886
  2.7220053073721204  0.0000000000000000  9.9999991939324886
  2.7220054767607804  1.5715505538813539 12.2225071350510497
  1.3610030730747029  3.9288763870607104 12.2225071350510497
 -1.3610022342974175  3.9288763870607104 12.2225071350510497
  0.0000001693886601  1.5715505538813539 12.2225071350510497
  0.1081881634273714  3.1495053632906944 14.8922134872576279
  1.4206443218178122  0.8762696847750301 14.8922198185163239
  4.1966317988563855  0.8513752961825928 14.6225455989404143
  2.6693081482410914  3.1126759990176782 14.2778909426436744
 -0.9248523465379093  4.1806908546572688 15.9901389360112081
