Al Cd Al Cd Al Cd  H 
 1.0000000000000000
     5.9454475792591008    0.0000000000000000    0.0000000000000000
    -2.9727237896295504    5.1489086356276932    0.0000000000000000
     0.0000000000000000    0.0000000000000000   24.8544362411285746
 Al  Cd  Al  Cd  Al  Cd  H  
   3   1   3   1   3   1   1
Cartesian
  0.0000000000000000  0.0000000000000000  9.9999994681129110
 -1.4863618948147752  2.5744543178138466  9.9999994681129110
  1.4863618948147752  2.5744543178138466  9.9999994681129110
  2.9727237896295504  0.0000000000000000  9.9999994681129110
  2.9727237926022743  1.7163028768262616 12.4272181205642873
  1.4863618977874991  4.2907571946401077 12.4272181205642873
 -1.4863618918420514  4.2907571946401077 12.4272181205642873
  0.0000000029727237  1.7163028768262616 12.4272181205642873
 -0.0899697589837269  3.5397720074580272 14.7315599198605973
  1.5394613233080290  0.8274928360455984 14.7381809428397439
  4.3212881321088270  0.8824842358003726 14.7315565396572694
  2.6988791793075246  3.5907096765928808 15.1657842196807380
 -1.0721355403942026  2.3352984479708825 15.6292734748707396
