Al Cd Al Cd Al Cd  H 
 1.0000000000000000
     5.9454475792591008    0.0000000000000000    0.0000000000000000
    -2.9727237896295504    5.1489086356276932    0.0000000000000000
     0.0000000000000000    0.0000000000000000   24.8544362411285746
 Al  Cd  Al  Cd  Al  Cd  H  
   3   1   3   1   3   1   1
Cartesian
  0.0000000000000000  0.0000000000000000  9.9999992923310419
 -1.4863617948147823  2.5744541178138611  9.9999992923310419
  1.4863617948147823  2.5744541178138611  9.9999992923310419
  2.9727235896295645  0.0000000000000000  9.9999992923310419
  2.9727235896295645  1.7163027785425715 12.4272179205643027
  1.4863617948147823  4.2907568963564318 12.4272179205643027
 -1.4863617948147823  4.2907568963564318 12.4272179205643027
  0.0000000000000000  1.7163027785425715 12.4272179205643027
 -0.0000740999947562  3.4806414536857915 14.9566031415675482
  1.5588234896868927  0.8467380400789731 14.7389131569727940
  4.3865192895796241  0.8467495400781593 14.7389013569736296
  2.9726517896346456  3.4604320551159478 15.1168660302262410
 -0.0000752999946713  3.3445607633158003 16.5600475280967601
