Al Hg Al Hg Al Hg  H 
 1.0000000000000000
     5.9714185774212138    0.0000000000000000    0.0000000000000000
    -2.9857087887106424    5.1713996340360753    0.0000000000000000
     0.0000000000000000    0.0000000000000000   24.8756412396279636
 Al  Hg  Al  Hg  Al  Hg  H  
   3   1   3   1   3   1   1
Cartesian
  0.0000000000000000  0.0000000000000000  9.9999992957367780
 -1.4928543943553212  2.5856998170180376  9.9999992957367780
  1.4928548943552857  2.5856998170180376  9.9999992957367780
  2.9857092887106069  0.0000000000000000  9.9999992957367780
  2.9857094583629706  1.7237998762882252 12.4378206198139818
  1.4928550640076494  4.3094996933062628 12.4378206198139818
 -1.4928542247029575  4.3094996933062628 12.4378206198139818
  0.0000001696523638  1.7237998762882252 12.4378206198139818
 -0.0640610487381643  3.7812131037896677 14.7860750334271174
  1.3859152830523207  0.8366319391209506 14.7800476158034737
  4.4243178068931970  0.8519076072149390 14.7616279746104055
  2.8822108410384439  3.3391830244395662 15.1796226529740572
 -0.1321578724179322  3.0162231598416351 16.1966048121749751
