Al Cd Al Cd Al Cd  H 
 1.0000000000000000
     5.9454475792591008    0.0000000000000000    0.0000000000000000
    -2.9727237896295504    5.1489086356276932    0.0000000000000000
     0.0000000000000000    0.0000000000000000   24.8544362411285746
 Al  Cd  Al  Cd  Al  Cd  H  
   3   1   3   1   3   1   1
Cartesian
  0.0000000000000000  0.0000000000000000  9.9999994681129110
 -1.4863618948147752  2.5744543178138466  9.9999994681129110
  1.4863618948147752  2.5744543178138466  9.9999994681129110
  2.9727237896295504  0.0000000000000000  9.9999994681129110
  2.9727237926022743  1.7163028768262616 12.4272181205642873
  1.4863618977874991  4.2907571946401077 12.4272181205642873
 -1.4863618918420514  4.2907571946401077 12.4272181205642873
  0.0000000029727237  1.7163028768262616 12.4272181205642873
 -0.0700792581618681  3.4149514125724800 14.7680866455759023
  1.4360318231039784  0.8062901503238559 14.7680862479049217
  4.5696884384981233  0.9220147655962415 14.7854639726359949
  2.8304058005360382  3.3504449326372385 15.0671734734065375
 -0.4135727505591178  4.9101336665988669 15.6951082784027847
