Ir Tl Ir Tl Ir Tl  H 
 1.0000000000000000
     5.7149645955696675    0.0000000000000000    0.0000000000000000
    -2.8574817977848692    4.9493046497530484    0.0000000000000000
     0.0000000000000000    0.0000000000000000   24.6662472544461266
 Ir  Tl  Ir  Tl  Ir  Tl  H  
   3   1   3   1   3   1   1
Cartesian
  0.0000000000000000  0.0000000000000000  9.9999992923310419
 -1.4287410988924203  2.4746522248765315  9.9999992923310419
  1.4287410988924203  2.4746522248765315  9.9999992923310419
  2.8574822977848338  0.0000000000000000  9.9999992923310419
  2.8574822977848338  1.6497681832510187 12.3331238272230497
  1.4287410988924203  4.1244204081275502 12.3331238272230497
 -1.4287410988924203  4.1244204081275502 12.3331238272230497
  0.0000000000000000  1.6497681832510187 12.3331238272230497
 -0.0001571999888754  3.2940898668874694 14.5233848722250620
  1.4240224992263411  0.8275133414394454 14.5233862722249647
  4.2905972963677268  0.8274749414421628 14.5231669722404835
  2.8572888977985200  3.2996182664962412 15.2441986212153076
 -0.0002763999804400  4.9492169497592551 15.3757620119049747
