In Re In Re In Re  H 
 1.0000000000000000
     6.1622035639199515    0.0000000000000000    0.0000000000000000
    -3.0811017819599757    5.3366246223436145    0.0000000000000000
     0.0000000000000000    0.0000000000000000   25.0314162286042503
 In  Re  In  Re  In  Re  H  
   3   1   3   1   3   1   1
Cartesian
  0.0000000000000000  0.0000000000000000  9.9999991685471343
 -1.5405508909799879  2.6683123111718072  9.9999991685471343
  1.5405508909799879  2.6683123111718072  9.9999991685471343
  3.0811017819599757  0.0000000000000000  9.9999991685471343
  3.0811017850410769  1.7788748723356633 12.5157081143021252
  1.5405508940610892  4.4471871835074710 12.5157081143021252
 -1.5405508878988861  4.4471871835074710 12.5157081143021252
  0.0000000030811018  1.7788748723356633 12.5157081143021252
 -0.0034328834968131  3.5193269439433887 15.2670790828537442
  1.5385687658249227  0.8905951768549644 15.2247487302151310
  4.6532237369471376  0.9116324339573478 15.2670594331920046
  3.0243770097103164  3.5904995853467216 14.7210899772373303
 -0.2488937682328954  1.9225776163376405 16.5552086281256621
