In Fe In Fe In Fe  H 
 1.0000000000000000
     6.2305605590825390    0.0000000000000000    0.0000000000000000
    -3.1152797795413045    5.3958236181542851    0.0000000000000000
     0.0000000000000000    0.0000000000000000   25.0872302246544692
 In  Fe  In  Fe  In  Fe  H  
   3   1   3   1   3   1   1
Cartesian
  0.0000000000000000  0.0000000000000000  9.9999993902676767
 -1.5576398897706523  2.6979118090771426  9.9999993902676767
  1.5576403897706173  2.6979118090771426  9.9999993902676767
  3.1152802795412695  0.0000000000000000  9.9999993902676767
  3.1152804493232038  1.7986078709194873 12.5436151123272346
  1.5576405595525520  4.4965196799966298 12.5436151123272346
 -1.5576397199887171  4.4965196799966298 12.5436151123272346
  0.0000001697819350  1.7986078709194873 12.5436151123272346
  0.2640164570915906  3.6828684847878992 15.5127894342955219
  1.7638269970982399  1.0851260295641938 15.5127927708971427
  4.9507240382967579  1.0596917411711237 15.0997438932527057
  3.0003215494301814  3.5308456328800055 14.7138882686358254
 -1.0342522435525088  4.7987005871699830 16.5358892057121629
