 V Cu  V Cu  V Cu  V  H 
 1.0000000000000000
     5.3126846240377743    0.0000000000000000    0.0000000000000000
     2.6563428120188517    4.6009196744071739    0.0000000000000000
     0.0000000000000000    0.0000000000000000   24.3377872776902215
 V   Cu  V   Cu  V   Cu  V   H  
   1   1   3   1   3   1   2   1
Cartesian
  0.0000000000000000  0.0000000000000000  9.9999991859721575
  1.3281714060094258  2.3004598372035869  9.9999991859721575
  2.6563423120188872  0.0000000000000000  9.9999991859721575
  3.9845137180283130  2.3004598372035869  9.9999991859721575
  5.3126849600274264  3.0672797844717556 12.1688936388451108
  3.9845135540180006  0.7668199472681688 12.1688936388451108
  2.6563426480085393  3.0672797844717556 12.1688936388451108
  1.3281712419991134  0.7668199472681688 12.1688936388451108
  2.6329924907907487  1.3822968746928141 14.2616154173806908
  3.9848284502134472  3.6764491500825676 14.4132606165910353
  5.3351570849943277  1.3832332354612709 14.2613018736671915
  6.6401519530804141  3.7167387779462753 14.1409320696869774
  1.3287118362231252  0.9074406664389965 15.4442778695585421
