Ga Cd Ga Cd Ga Cd  H 
 1.0000000000000000
     6.1903335619292790    0.0000000000000000    0.0000000000000000
    -3.0951667809646395    5.3609856206196618    0.0000000000000000
     0.0000000000000000    0.0000000000000000   25.0543842269788790
 Ga  Cd  Ga  Cd  Ga  Cd  H  
   3   1   3   1   3   1   1
Cartesian
  0.0000000000000000  0.0000000000000000  9.9999990942391879
 -1.5475833904823197  2.6804928103098309  9.9999990942391879
  1.5475833904823197  2.6804928103098309  9.9999990942391879
  3.0951667809646395  0.0000000000000000  9.9999990942391879
  3.0951667840598063  1.7869952050862254 12.5271921134894395
  1.5475833935774870  4.4674880153960563 12.5271921134894395
 -1.5475833873871530  4.4674880153960563 12.5271921134894395
  0.0000000030951666  1.7869952050862254 12.5271921134894395
  0.0354742790824898  3.6316235735062246 15.0358780854708289
  1.7172229571354176  0.7955349372047179 15.0017205164419725
  4.6105962046722482  0.8340004593554562 15.0360674966155852
  2.9662688946493794  3.6483356259477064 15.2899543704271643
 -1.0655376744505560  2.4021496059344867 15.8372048080137162
