In Mn In Mn In Mn  H 
 1.0000000000000000
     6.1574575642558118    0.0000000000000000    0.0000000000000000
    -3.0787287821279059    5.3325146226344664    0.0000000000000000
     0.0000000000000000    0.0000000000000000   25.0275422288783993
 In  Mn  In  Mn  In  Mn  H  
   3   1   3   1   3   1   1
Cartesian
  0.0000000000000000  0.0000000000000000  9.9999994671317012
 -1.5393643910639530  2.6662573113172332  9.9999994671317012
  1.5393643910639530  2.6662573113172332  9.9999994671317012
  3.0787287821279059  0.0000000000000000  9.9999994671317012
  3.0787287852066347  1.7775048724339839 12.5137711144391996
  1.5393643941426816  4.4437621837512173 12.5137711144391996
 -1.5393643879852243  4.4437621837512173 12.5137711144391996
  0.0000000030787288  1.7775048724339839 12.5137711144391996
  0.0873056641062200  3.5107257118763466 15.4598937289433689
  1.6214376570856255  0.8413674259907297 15.2900948692423864
  4.7000970846902561  0.8352862636426798 15.4598922523183777
  3.0419963982175755  3.5762170542044074 14.8849694631433032
 -0.9452679444826884  2.3232555570023594 16.7589521125197223
