Ga Rh Ga Rh Ga Rh  H 
 1.0000000000000000
     5.6280006017238398    0.0000000000000000    0.0000000000000000
    -2.8140008008618849    4.8739916550827163    0.0000000000000000
     0.0000000000000000    0.0000000000000000   24.5952422594709326
 Ga  Rh  Ga  Rh  Ga  Rh  H  
   3   1   3   1   3   1   1
Cartesian
  0.0000000000000000  0.0000000000000000  9.9999994147239768
 -1.4070004004309424  2.4369958275413581  9.9999994147239768
  1.4069999004309774  2.4369958275413581  9.9999994147239768
 -0.0000004999999650  4.8739916550827163  9.9999994147239768
  2.8140001370092653  1.6246638834029083 12.2976211297354663
  1.4069997365783231  4.0616597109442667 12.2976211297354663
 -1.4070005642835968  4.0616597109442667 12.2976211297354663
 -0.0000001638526547  1.6246638834029083 12.2976211297354663
  0.0322504191682007  3.2339904263373684 14.8303049367835307
  1.4733560131535641  0.7740085860810992 14.7474782694982007
  4.2503973897957215  0.7920643758992029 14.8303174311665966
  2.6255972755545676  3.3581227128805029 14.3390701397789861
 -0.6756123964315408  2.0147301422879682 15.9534287200354203
