Al Pd Al Pd Al Pd  H 
 1.0000000000000000
     5.6091836030554605    0.0000000000000000    0.0000000000000000
    -2.8045918015277302    4.8576956562359328    0.0000000000000000
     0.0000000000000000    0.0000000000000000   24.5798782605581927
 Al  Pd  Al  Pd  Al  Pd  H  
   3   1   3   1   3   1   1
Cartesian
  0.0000000000000000  0.0000000000000000  9.9999994583528693
 -1.4022959007638651  2.4288478281179664  9.9999994583528693
  1.4022959007638651  2.4288478281179664  9.9999994583528693
  2.8045918015277302  0.0000000000000000  9.9999994583528693
  2.8045918043323219  1.6192318837927457 12.2899391302790963
  1.4022959035684570  4.0480797119107121 12.2899391302790963
 -1.4022958979592732  4.0480797119107121 12.2899391302790963
  0.0000000028045917  1.6192318837927457 12.2899391302790963
 -0.0183846040855384  3.2219114319524329 14.6723077965821691
  1.3787690046908387  0.8019699167892184 14.6723080915407085
  4.2939935446226167  0.8599062927263605 14.5918053278355213
  2.6469140577637438  3.1474280395589758 14.4487376056626182
 -0.5602650502775228  4.5342258558169677 15.7622854396111105
