Rh Nb Rh Nb Rh Nb Rh  H 
 1.0000000000000000
     5.5279176088064030    0.0000000000000000    0.0000000000000000
     2.7639588044032015    4.7873176612163659    0.0000000000000000
     0.0000000000000000    0.0000000000000000   24.5135242652538601
 Rh  Nb  Rh  Nb  Rh  Nb  Rh  H  
   1   1   3   1   3   1   2   1
Cartesian
  0.0000000000000000  0.0000000000000000  9.9999991893412457
  1.3819794022016008  2.3936588306081830  9.9999991893412457
  2.7639588044032015  0.0000000000000000  9.9999991893412457
  4.1459382066048018  2.3936588306081830  9.9999991893412457
  5.5279176115703610  3.1915451090733500 12.2567621326269300
  4.1459382093687607  0.7978862784651668 12.2567621326269300
  2.7639588071671604  3.1915451090733500 12.2567621326269300
  1.3819794049655596  0.7978862784651668 12.2567621326269300
  2.7963736398502599  1.5769971374962681 14.4492486542071781
  4.1755872507427707  3.9722594466438519 14.3850853624162269
  5.5132993181416303  1.5951127305117234 14.4681568915004153
  6.9031446403011358  4.0023704108810403 14.4681676284240410
  2.5861127513088187  4.8900793832526634 15.5438053600143284
