Al Os Al Os Al Os  H 
 1.0000000000000000
     5.4664376131571517    0.0000000000000000    0.0000000000000000
    -2.7332188065785759    4.7340736649842778    0.0000000000000000
     0.0000000000000000    0.0000000000000000   24.4633262688062167
 Al  Os  Al  Os  Al  Os  H  
   3   1   3   1   3   1   1
Cartesian
  0.0000000000000000  0.0000000000000000  9.9999993268370240
 -1.3666094032892879  2.3670368324921389  9.9999993268370240
  1.3666094032892879  2.3670368324921389  9.9999993268370240
  0.0000000000000000  4.7340736649842778  9.9999993268370240
  2.7332188093117948  1.5780245534167348 12.2316631344031084
  1.3666094060225067  3.9450613859088737 12.2316631344031084
 -1.3666094005560694  3.9450613859088737 12.2316631344031084
  0.0000000027332187  1.5780245534167348 12.2316631344031084
 -0.1251903179685143  3.0577477099036328 14.5830686859068024
  1.2188825182432277  0.7297452983561548 14.5830687348334536
  4.0100621322936743  0.7371859176805892 14.6076362504088380
  2.5957649458077650  3.0766899505600929 14.2720788464212127
 -0.1343242815057781  4.6565219212273083 15.5834064375556167
