Ga Cr Ga Cr Ga Cr  H 
 1.0000000000000000
     5.5113616099780200    0.0000000000000000    0.0000000000000000
    -2.7556808049890100    4.7729796622310214    0.0000000000000000
     0.0000000000000000    0.0000000000000000   24.5000072662104138
 Ga  Cr  Ga  Cr  Ga  Cr  H  
   3   1   3   1   3   1   1
Cartesian
  0.0000000000000000  0.0000000000000000  9.9999994792991345
 -1.3778404024945050  2.3864898311155107  9.9999994792991345
  1.3778404024945050  2.3864898311155107  9.9999994792991345
  2.7556808049890100  0.0000000000000000  9.9999994792991345
  2.7556808077446906  1.5909932191526805 12.2500036331052069
  1.3778404052501858  3.9774830502681913 12.2500036331052069
 -1.3778403997388242  3.9774830502681913 12.2500036331052069
  0.0000000027556808  1.5909932191526805 12.2500036331052069
 -0.0467637930334313  3.1545259398631353 14.8776796129211615
  1.2947967076013949  0.8434595113658844 14.6784978123478389
  4.1339452433787436  0.8497158662854215 14.8776808869215404
  2.8657851972053261  3.1184193462711072 14.2430758922104364
  0.7181169011657880  4.3583590950871738 15.9917692763377950
