Ga Mo Ga Mo Ga Mo  H 
 1.0000000000000000
     5.6319666014431782    0.0000000000000000    0.0000000000000000
    -2.8159828007216245    4.8774256548397021    0.0000000000000000
     0.0000000000000000    0.0000000000000000   24.5984792592418593
 Ga  Mo  Ga  Mo  Ga  Mo  H  
   3   1   3   1   3   1   1
Cartesian
  0.0000000000000000  0.0000000000000000  9.9999991105370150
 -1.4079914003608123  2.4387128274198511  9.9999991105370150
  1.4079919003607768  2.4387128274198511  9.9999991105370150
  2.8159833007215891  0.0000000000000000  9.9999991105370150
  2.8159834702042268  1.6258085499874255 12.2992396296209296
  1.4079920698434147  4.0645213774072770 12.2992396296209296
 -1.4079912308781743  4.0645213774072770 12.2992396296209296
  0.0000001694826378  1.6258085499874255 12.2992396296209296
 -0.0036123251731461  3.2267018099087670 15.0623909865530425
  1.3846361099480928  0.8221810483568431 15.0623314090362754
  4.3076524731322383  0.8612345955751447 14.7952065603760676
  2.7330720724458160  3.2037670131621074 14.3425330212093911
 -0.3318007945025392  4.6857752419754037 16.1008733735218819
