Ga Ti Ga Ti Ga Ti  H 
 1.0000000000000000
     5.6709715986829154    0.0000000000000000    0.0000000000000000
    -2.8354857993414577    4.9112056524491967    0.0000000000000000
     0.0000000000000000    0.0000000000000000   24.6303282569880047
 Ga  Ti  Ga  Ti  Ga  Ti  H  
   3   1   3   1   3   1   1
Cartesian
  0.0000000000000000  0.0000000000000000  9.9999994538557004
 -1.4177428996707289  2.4556028262245984  9.9999994538557004
  1.4177428996707289  2.4556028262245984  9.9999994538557004
  2.8354857993414577  0.0000000000000000  9.9999994538557004
  2.8354858021769438  1.6370685491793304 12.3151641284940023
  1.4177429025062147  4.0926713754039286 12.3151641284940023
 -1.4177428968352430  4.0926713754039286 12.3151641284940023
  0.0000000028354857  1.6370685491793304 12.3151641284940023
  0.0974497519483888  3.2276128690501742 14.7614678874586875
  1.4386139806003393  0.8678101468342975 14.8610215314348757
  4.2598263073700942  0.6947758579465099 14.7925777161702392
  2.9471166834310076  3.2338038464939500 14.5034796569694233
 -1.3700312802937005  3.1945314346949911 15.8476485410776569
