Cd Ir Cd Ir Cd Ir Cd  H 
 1.0000000000000000
     5.9953595757269831    0.0000000000000000    0.0000000000000000
     2.9976797878634915    5.1921336325687948    0.0000000000000000
     0.0000000000000000    0.0000000000000000   24.8951892382446118
 Cd  Ir  Cd  Ir  Cd  Ir  Cd  H  
   1   1   3   1   3   1   2   1
Cartesian
  0.0000000000000000  0.0000000000000000  9.9999993184509943
  1.4988398939317458  2.5960668162843974  9.9999993184509943
  2.9976797878634915  0.0000000000000000  9.9999993184509943
  4.4965196817952373  2.5960668162843974  9.9999993184509943
  5.9953595787246634  3.4614224234432411 12.4475946191223059
  4.4965196847929167  0.8653556071588436 12.4475946191223059
  2.9976797908611714  3.4614224234432411 12.4475946191223059
  1.4988398969294254  0.8653556071588436 12.4475946191223059
  2.9962393637555857  1.7315915769200250 15.0789052633270817
  4.4972552524615832  4.3264742700160452 14.8073706211491665
  5.9623959136891598  1.7294156315966196 15.0544608512803748
  7.4793922235066717  4.3565511215351815 15.0544438727613148
  4.4907616845004732  4.3294142533798832 16.4015823108969023
