Pb  V Pb  V Pb  V  H 
 1.0000000000000000
     6.7135785249008544    0.0000000000000000    0.0000000000000000
    -3.3567887624504626    5.8141295885520679    0.0000000000000000
     0.0000000000000000    0.0000000000000000   25.4816121967452780
 Pb  V   Pb  V   Pb  V   H  
   3   1   3   1   3   1   1
Cartesian
  0.0000000000000000  0.0000000000000000  9.9999992923310419
 -1.6783945812252170  2.9070647942760339  9.9999992923310419
  1.6783945812252170  2.9070647942760339  9.9999992923310419
  3.3567892624504272  0.0000000000000000  9.9999992923310419
  3.3567892624504272  1.9380431628506918 12.7408061983726313
  1.6783945812252170  4.8451079571267259 12.7408061983726313
 -1.6783945812252170  4.8451079571267259 12.7408061983726313
  0.0000000000000000  1.9380431628506918 12.7408061983726313
 -0.0002654999812114  3.8140208300935665 15.5690335982277439
  1.6248657850132844  1.0003983292049106 15.5690935982234979
  5.0893237398443318  0.9998531292434928 15.5690996982230647
  3.3567163624555860  3.8759590257103920 14.9048900452271251
  3.3566916624573340  3.8760423257044971 16.5755522269995410
