Tl Zn Tl Zn Tl Zn  H 
 1.0000000000000000
     6.9476135083389234    0.0000000000000000    0.0000000000000000
    -3.4738067541694617    6.0168095742090344    0.0000000000000000
     0.0000000000000000    0.0000000000000000   25.6727011832225003
 Tl  Zn  Tl  Zn  Tl  Zn  H  
   3   1   3   1   3   1   1
Cartesian
  0.0000000000000000  0.0000000000000000  9.9999993982295923
 -1.7369033770847309  3.0084047871045172  9.9999993982295923
  1.7369033770847309  3.0084047871045172  9.9999993982295923
  3.4738067541694617  0.0000000000000000  9.9999993982295923
  3.4738067576432679  2.0056031893974082 12.8363505916112501
  1.7369033805585370  5.0140079765019259 12.8363505916112501
 -1.7369033736109243  5.0140079765019259 12.8363505916112501
  0.0000000034738068  2.0056031893974082 12.8363505916112501
  0.1280280789051256  4.0519833442040971 15.8401636852122163
  1.9555764379407210  1.0752606996775829 15.7693096742347425
  5.4897588150017231  0.9758586734087562 15.6890325753060758
  3.3803226091155736  4.0172779353193411 15.3459901938814820
 -2.4502969177228420  3.8095447689028936 16.5163238182198846
