Bi Pb Bi Pb Bi Pb Bi Pb Bi Pb Bi  H 
 1.0000000000000000
     7.2746584851949647    0.0000000000000000    0.0000000000000000
     3.4896827530459666    6.2124565603637025    0.0000000000000000
     0.0000000000000000    0.0000000000000000   25.8950881674848645
 Bi  Pb  Bi  Pb  Bi  Pb  Bi  Pb  Bi  Pb  Bi  H  
   1   1   1   2   1   1   1   1   1   1   1   1
Cartesian
  1.5971947682200303  1.1459915034701438  9.9999991868992399
  5.2345240108175126  1.1459915034701438  9.9999991868992399
  3.3420361447430134  4.2522197836519950  9.9999991868992399
  6.9793653873404953  4.2522197836519950  9.9999991868992399
  3.4896826882880774  2.1261098887197694 12.9475440837424323
  7.1270119308855593  2.1261098887197694 12.9475440837424323
  5.2345240648110609  5.2323381689016211 12.9475440837424323
  8.8718533074085428  5.2323381689016211 12.9475440837424323
 -0.0877120068260961  0.0644957795107926 15.8925424835103222
  3.7692488617764579 -0.0740741885227572 15.6483900232410758
  1.6440452373541619  3.1475282378858207 15.8925398681064181
  5.4653798445834489  3.0594855892853476 15.7200314000603267
  1.2415830246218043  1.3457171175323501 16.9314949824063241
