Pb Tc Pb Tc Pb Tc  H 
 1.0000000000000000
     6.6285835309156873    0.0000000000000000    0.0000000000000000
    -3.3142917654578437    5.7405215937610778    0.0000000000000000
     0.0000000000000000    0.0000000000000000   25.4122142016563579
 Pb  Tc  Pb  Tc  Pb  Tc  H  
   3   1   3   1   3   1   1
Cartesian
  0.0000000000000000  0.0000000000000000  9.9999991387082368
 -1.6571458827289218  2.8702607968805389  9.9999991387082368
  1.6571458827289218  2.8702607968805389  9.9999991387082368
  3.3142917654578437  0.0000000000000000  9.9999991387082368
  3.3142917687721356  1.9135071960068522 12.7061071008281790
  1.6571458860432138  4.7837679928873911 12.7061071008281790
 -1.6571458794146301  4.7837679928873911 12.7061071008281790
  0.0000000033142917  1.9135071960068522 12.7061071008281790
 -0.2539742509014533  3.9312497153762012 15.7596466370856110
  1.3735812040875310  1.1202323642580274 15.3199275830213164
  4.7540396229226465  1.1246443110151716 15.7596155579476402
  3.6595762094717457  3.6277362663971413 14.8469953240641708
 -0.0487066097276201  1.9417347184085578 16.8043025607928342
