Pb Zn Pb Zn Pb Zn  H 
 1.0000000000000000
     6.9450415085209363    0.0000000000000000    0.0000000000000000
    -3.4725207542604681    6.0145825743666315    0.0000000000000000
     0.0000000000000000    0.0000000000000000   25.6706011833711116
 Pb  Zn  Pb  Zn  Pb  Zn  H  
   3   1   3   1   3   1   1
Cartesian
  0.0000000000000000  0.0000000000000000  9.9999993255317836
 -1.7362603771302341  3.0072912871833157  9.9999993255317836
  1.7362603771302341  3.0072912871833157  9.9999993255317836
  3.4725207542604681  0.0000000000000000  9.9999993255317836
  3.4725207577329891  2.0048608561173498 12.8353005916855558
  1.7362603806027548  5.0121521433006651 12.8353005916855558
 -1.7362603736577136  5.0121521433006651 12.8353005916855558
  0.0000000034725207  2.0048608561173498 12.8353005916855558
  0.0164028893203647  4.0950755797932521 15.8085033005723510
  1.8184671458215100  0.9742493028949961 15.8093791044729244
  5.3771525020830877  1.0995207881706015 15.4493990318896550
  3.4578962851917114  4.0008764926779410 15.5626420395733636
 -0.8769522594971044  5.5080955982582545 17.1429395737705974
