Sn Sc Sn Sc Sn Sc  H 
 1.0000000000000000
     6.5883985337594542    0.0000000000000000    0.0000000000000000
    -3.2941987668797625    5.7057205962238360    0.0000000000000000
     0.0000000000000000    0.0000000000000000   25.3794032039782884
 Sn  Sc  Sn  Sc  Sn  Sc  H  
   3   1   3   1   3   1   1
Cartesian
  0.0000000000000000  0.0000000000000000  9.9999993282497925
 -1.6470993834398813  2.8528602981119180  9.9999993282497925
  1.6470998834398458  2.8528602981119180  9.9999993282497925
  3.2941992668797271  0.0000000000000000  9.9999993282497925
  3.2941994368405814  1.9019068635060385 12.6897016019891442
  1.6471000534006999  4.7547671616179565 12.6897016019891442
 -1.6470992134790274  4.7547671616179565 12.6897016019891442
  0.0000001699608538  1.9019068635060385 12.6897016019891442
  0.0643401062602020  3.6852994855871168 15.5379610120014640
  1.7073282869585307  0.9163874831360428 15.4103429671365468
  5.0759659125480763  0.9540953238865137 15.5378893913256206
  3.2828943008540916  3.8096937402553532 15.0370894039446039
 -0.7817142878369566  2.3532513468088010 16.8230524736683833
