Pb Mo Pb Mo Pb Mo  H 
 1.0000000000000000
     6.6667345282158594    0.0000000000000000    0.0000000000000000
    -3.3333667641079647    5.7735615914229399    0.0000000000000000
     0.0000000000000000    0.0000000000000000   25.4433641994519704
 Pb  Mo  Pb  Mo  Pb  Mo  H  
   3   1   3   1   3   1   1
Cartesian
  0.0000000000000000  0.0000000000000000  9.9999992485731077
 -1.6666833820539824  2.8867807957114699  9.9999992485731077
  1.6666838820539474  2.8867807957114699  9.9999992485731077
  3.3333672641079297  0.0000000000000000  9.9999992485731077
  3.3333674341079522  1.9245205285497928 12.7216820997259852
  1.6666840520539696  4.8113013242612626 12.7216820997259852
 -1.6666832120539605  4.8113013242612626 12.7216820997259852
  0.0000001700000221  1.9245205285497928 12.7216820997259852
  0.3437867928328573  4.0805968462043598 16.0125031883977620
  2.0389034700700805  1.1448218897325928 16.0120772919244274
  5.4326128309008102  1.2120979755365149 15.3971109502333956
  3.3396153813380178  3.8525027114229551 14.8401701597382552
 -0.1797243284423891  5.6696343015448907 17.4086297894880531
