Pb Pt Pb Pt Pb Pt  H 
 1.0000000000000000
     6.7133775249150780    0.0000000000000000    0.0000000000000000
    -3.3566887624575390    5.8139555885643821    0.0000000000000000
     0.0000000000000000    0.0000000000000000   25.4814481967568831
 Pb  Pt  Pb  Pt  Pb  Pt  H  
   3   1   3   1   3   1   1
Cartesian
  0.0000000000000000  0.0000000000000000  9.9999992333683974
 -1.6783443812287695  2.9069777942821911  9.9999992333683974
  1.6783443812287695  2.9069777942821911  9.9999992333683974
  3.3566887624575390  0.0000000000000000  9.9999992333683974
  3.3566887658142281  1.9379851942501423 12.7407240983784416
  1.6783443845854586  4.8449629885323331 12.7407240983784416
 -1.6783443778720806  4.8449629885323331 12.7407240983784416
  0.0000000033566887  1.9379851942501423 12.7407240983784416
 -0.3264478441005798  4.0093538901711714 15.9350329089759573
  1.2894066400812361  1.1924261981854856 15.2716788018417731
  4.7554075195217242  1.1855113410364486 15.9353165174943872
  3.6913373328736787  3.6832844119190176 15.0087424904832094
 -0.7349738110565351  2.3624020161681312 17.2339716193696404
