Os  Y Os  Y Os  Y  H 
 1.0000000000000000
     5.7549985927365856    0.0000000000000000    0.0000000000000000
    -2.8774997963682574    4.9839756472994896    0.0000000000000000
     0.0000000000000000    0.0000000000000000   24.6989352521329018
 Os  Y   Os  Y   Os  Y   H  
   3   1   3   1   3   1   1
Cartesian
  0.0000000000000000  0.0000000000000000  9.9999992923310419
 -1.4387496981841430  2.4919876236497589  9.9999992923310419
  1.4387496981841430  2.4919876236497589  9.9999992923310419
  2.8774993963682860  0.0000000000000000  9.9999992923310419
  2.8774993963682860  1.6613250824331727 12.3494677260664432
  1.4387496981841430  4.1533127060829313 12.3494677260664432
 -1.4387496981841430  4.1533127060829313 12.3494677260664432
  0.0000000000000000  1.6613250824331727 12.3494677260664432
 -0.0004363999691173  3.4642523548455975 14.4581315768428382
  1.5602642895849319  0.7599742462189779 14.4576878768742372
  4.1934731032409047  0.7598231462296708 14.4576758768750846
  2.8771577963924599  3.3226461648666286 15.3556695133268590
  2.8776720963560640  3.3228570648517035 17.3734875705321308
