Pb Au Pb Au Pb Au  H 
 1.0000000000000000
     6.8767015133571459    0.0000000000000000    0.0000000000000000
    -3.4383507566785729    5.9553985785548997    0.0000000000000000
     0.0000000000000000    0.0000000000000000   25.6148021873198353
 Pb  Au  Pb  Au  Pb  Au  H  
   3   1   3   1   3   1   1
Cartesian
  0.0000000000000000  0.0000000000000000  9.9999994091392104
 -1.7191753783392865  2.9776992892774499  9.9999994091392104
  1.7191753783392865  2.9776992892774499  9.9999994091392104
  3.4383507566785729  0.0000000000000000  9.9999994091392104
  3.4383507601169230  1.9851328575331670 12.8074010936599176
  1.7191753817776365  4.9628321468106167 12.8074010936599176
 -1.7191753749009360  4.9628321468106167 12.8074010936599176
  0.0000000034383507  1.9851328575331670 12.8074010936599176
 -0.0252200999375427  3.9393063671167665 15.7693160293277437
  1.6556068779201032  1.0294670699331729 15.5140170613026491
  5.1719135871158590  1.0298159490927019 15.7692298611331854
  3.4288396320756585  3.9757675266675521 15.2020150667419252
 -0.8537131087377231  2.4780400859921952 17.0634940481432373
