In Ag In Ag In Ag  H 
 1.0000000000000000
     6.5853805339730291    0.0000000000000000    0.0000000000000000
    -3.2926897669865496    5.7031065964088210    0.0000000000000000
     0.0000000000000000    0.0000000000000000   25.3769392041526594
 In  Ag  In  Ag  In  Ag  H  
   3   1   3   1   3   1   1
Cartesian
  0.0000000000000000  0.0000000000000000  9.9999992825569493
 -1.6463448834932748  2.8515532982044105  9.9999992825569493
  1.6463453834932398  2.8515532982044105  9.9999992825569493
  3.2926902669865146  0.0000000000000000  9.9999992825569493
  3.2926904369458594  1.9010355302352382 12.6884696020763297
  1.6463455534525848  4.7525888284396487 12.6884696020763297
 -1.6463447135339297  4.7525888284396487 12.6884696020763297
  0.0000001699593450  1.9010355302352382 12.6884696020763297
  0.0762904343132202  3.7860431352385282 15.5599974622454944
  1.6695512777940946  1.0238716496979896 15.5599253156073374
  5.1032023513826843  1.0467120612276934 15.3825287356705189
  3.1226087436964032  3.7029314377319862 15.1514668825982604
 -0.7909289740250420  5.2467516088052797 16.6226206800348990
