Tl Zn Tl Zn Tl Zn  H 
 1.0000000000000000
     6.9476135083389234    0.0000000000000000    0.0000000000000000
    -3.4738067541694617    6.0168095742090344    0.0000000000000000
     0.0000000000000000    0.0000000000000000   25.6727011832225003
 Tl  Zn  Tl  Zn  Tl  Zn  H  
   3   1   3   1   3   1   1
Cartesian
  0.0000000000000000  0.0000000000000000  9.9999993982295923
 -1.7369033770847309  3.0084047871045172  9.9999993982295923
  1.7369033770847309  3.0084047871045172  9.9999993982295923
  3.4738067541694617  0.0000000000000000  9.9999993982295923
  3.4738067576432679  2.0056031893974082 12.8363505916112501
  1.7369033805585370  5.0140079765019259 12.8363505916112501
 -1.7369033736109243  5.0140079765019259 12.8363505916112501
  0.0000000034738068  2.0056031893974082 12.8363505916112501
  0.0400335524529774  4.0501950882305460 15.9058991243731782
  1.7523305146681230  0.9938795475627549 15.7513189384084740
  5.1968419478230956  0.9485291811288796 15.9065239465745769
  3.4285082446189570  4.0376245049284876 15.6307755426543800
 -0.8879009420118120  2.5183094380626860 17.0063044953387816
