Pb In Pb In Pb In Pb In Pb In Pb In  H 
 1.0000000000000000
     6.9750035064006193    0.0000000000000000    0.0000000000000000
     3.1774297751431426    6.2092365605915720    0.0000000000000000
     0.0000000000000000    0.0000000000000000   25.7584841771519066
 Pb  In  Pb  In  Pb  In  Pb  In  Pb  In  Pb  In  H  
   1   1   1   1   1   1   1   1   1   1   1   1   1
Cartesian
  4.7661443079390011  0.7820188400789412  9.9999994771758818
  1.2786425547386913  0.7820188400789412  9.9999994771758818
  2.8673574423102623  3.8866371203747270  9.9999994771758818
  6.3548591955105724  3.8866371203747270  9.9999994771758818
  6.6649313458793795  1.9433185570827454 12.8792420885759533
  3.1774295926790694  1.9433185570827454 12.8792420885759533
  4.7661444802506407  5.0479368373785309 12.8792420885759533
  8.2536462334509508  5.0479368373785309 12.8792420885759533
  6.6751809757400968  6.2134799590663174 15.7101586668831015
 -0.0647076097631370 -0.2127453523170218 15.7612088915041166
  1.4569778472241635  2.9574784051198240 15.6185135090931304
  5.1327117394069379  3.2732451627065462 15.6556123977556307
  4.5469168365100776  1.7861145960584623 16.6782976055099823
