In Tl In Tl In Tl  H 
 1.0000000000000000
     6.9428995086725189    0.0000000000000000    0.0000000000000000
    -3.4714497543362595    6.0127275744979043    0.0000000000000000
     0.0000000000000000    0.0000000000000000   25.6688521834948844
 In  Tl  In  Tl  In  Tl  H  
   3   1   3   1   3   1   1
Cartesian
  0.0000000000000000  0.0000000000000000  9.9999993041713022
 -1.7357248771681297  3.0063637872489521  9.9999993041713022
  1.7357248771681297  3.0063637872489521  9.9999993041713022
  3.4714497543362595  0.0000000000000000  9.9999993041713022
  3.4714497578077097  2.0042425228283922 12.8344260917474422
  1.7357248806395797  5.0106063100773444 12.8344260917474422
 -1.7357248736966802  5.0106063100773444 12.8344260917474422
  0.0000000034714496  2.0042425228283922 12.8344260917474422
  0.1465841112327966  4.0114491640200951 15.5545341049080221
  1.5836240525435836  1.0250690917431893 15.5881421020522026
  4.9437936488301446  0.8963090741190807 15.5721465311452061
  3.4754351938841221  4.0430911549063451 16.0202511746763712
 -1.1529958274351084  3.7664738130105690 16.8320645357036014
