In Cd In Cd In Cd  H 
 1.0000000000000000
     6.7759135204895999    0.0000000000000000    0.0000000000000000
    -3.3879567602448000    5.8681125847318594    0.0000000000000000
     0.0000000000000000    0.0000000000000000   25.5325081931435243
 In  Cd  In  Cd  In  Cd  H  
   3   1   3   1   3   1   1
Cartesian
  0.0000000000000000  0.0000000000000000  9.9999992923310419
 -1.6939782801224070  2.9340564923659156  9.9999992923310419
  1.6939782801224070  2.9340564923659156  9.9999992923310419
  3.3879565602448141  0.0000000000000000  9.9999992923310419
  3.3879565602448141  1.9560376615772770 12.7662542965717485
  1.6939782801224070  4.8900941539431919 12.7662542965717485
 -1.6939782801224070  4.8900941539431919 12.7662542965717485
  0.0000000000000000  1.9560376615772770 12.7662542965717485
  0.0000090999993560  3.9033948237688456 15.5976952961994453
  1.7067957792153523  0.9801370306387399 15.5912742966538396
  5.0690980412756419  0.9803339306248060 15.5913821966462027
  3.3874878602779828  3.9258318221810491 15.5540545992877597
 -0.0000717999949189  3.8889071247940952 17.3946286690360417
