Tl Rh Tl Rh Tl Rh Tl  H 
 1.0000000000000000
     6.5394445372237771    0.0000000000000000    0.0000000000000000
     3.2697217686119240    5.6633245992240706    0.0000000000000000
     0.0000000000000000    0.0000000000000000   25.3394322068069151
 Tl  Rh  Tl  Rh  Tl  Rh  Tl  H  
   1   1   3   1   3   1   2   1
Cartesian
  0.0000000000000000  0.0000000000000000  9.9999991370722530
  1.6348608843059620  2.8316622996120353  9.9999991370722530
  3.2697222686118885  0.0000000000000000  9.9999991370722530
  4.9045831529178505  2.8316622996120353  9.9999991370722530
  6.5394442071601890  3.7755497347038220 12.6697161034034576
  4.9045833228542275  0.9438874350917866 12.6697161034034576
  3.2697219385483010  3.7755497347038220 12.6697161034034576
  1.6348610542423390  0.9438874350917866 12.6697161034034576
  3.2413361170389696  2.3941696418132596 15.8883386882149189
  4.9013764895570517  4.6942389772035069 14.7963818483320324
  6.5544852383789163  2.4261014820472426 15.8946305199107343
  8.1932009850080441  5.2536122305918953 15.1773722224522398
  1.6318321084184919 -0.7298952548187749 16.3991117553501198
