Tl Tc Tl Tc Tl Tc  H 
 1.0000000000000000
     6.4609225427805352    0.0000000000000000    0.0000000000000000
    -3.2304607713903031    5.5953226040363599    0.0000000000000000
     0.0000000000000000    0.0000000000000000   25.2753192113439944
 Tl  Tc  Tl  Tc  Tl  Tc  H  
   3   1   3   1   3   1   1
Cartesian
  0.0000000000000000  0.0000000000000000  9.9999991252333356
 -1.6152303856951515  2.7976613020181800  9.9999991252333356
  1.6152308856951161  2.7976613020181800  9.9999991252333356
  3.2304612713902676  0.0000000000000000  9.9999991252333356
  3.2304614412873836  1.8651075328136792 12.6376596056719972
  1.6152310555922318  4.6627688348318594 12.6376596056719972
 -1.6152302157980356  4.6627688348318594 12.6376596056719972
  0.0000001698971159  1.8651075328136792 12.6376596056719972
  0.0897609886603510  3.7134785772530368 15.6583642124164406
  1.6457573840880855  1.0195787113213723 15.6580090183555622
  4.9444414043314957  0.9892167731078317 15.5852428403146188
  2.9868734604220171  3.5892372532776791 14.7640665745261845
 -0.6681970243467248  5.2099806424872153 16.8396260210582263
