Tl Zr Tl Zr Tl Zr  H 
 1.0000000000000000
     6.6345095304963220    0.0000000000000000    0.0000000000000000
    -3.3172547652481610    5.7456535933979023    0.0000000000000000
     0.0000000000000000    0.0000000000000000   25.4170532013139194
 Tl  Zr  Tl  Zr  Tl  Zr  H  
   3   1   3   1   3   1   1
Cartesian
  0.0000000000000000  0.0000000000000000  9.9999994256339679
 -1.6586273826240805  2.8728267966989511  9.9999994256339679
  1.6586273826240805  2.8728267966989511  9.9999994256339679
  3.3172547652481610  0.0000000000000000  9.9999994256339679
  3.3172547685654150  1.9152178625507497 12.7085266006569597
  1.6586273859413345  4.7880446592497004 12.7085266006569597
 -1.6586273793068260  4.7880446592497004 12.7085266006569597
  0.0000000033172547  1.9152178625507497 12.7085266006569597
  0.2039304526198138  3.7509150290121402 15.6747149586944943
  1.8682780629195215  0.8567708462466506 15.8233409993698046
  5.1662908033006962  0.8820928322090621 15.6164362228262519
  3.4761127153686662  3.7565275902857009 15.2233990868896196
 -2.9319979491181369  3.6936196184418812 17.0754187176620214
