Fe Nb Fe Nb Fe Nb  H 
 1.0000000000000000
     5.2474336286553855    0.0000000000000000    0.0000000000000000
    -2.6237168143276928    4.5444106784061402    0.0000000000000000
     0.0000000000000000    0.0000000000000000   24.2845102814604701
 Fe  Nb  Fe  Nb  Fe  Nb  H  
   3   1   3   1   3   1   1
Cartesian
  0.0000000000000000  0.0000000000000000  9.9999992923310419
 -1.3118583071638532  2.2722053392030701  9.9999992923310419
  1.3118583071638532  2.2722053392030701  9.9999992923310419
  0.0000000000000000  4.5444105784061470  9.9999992923310419
  2.6237167143276992  1.5148034928020515 12.1422550407302428
  1.3118583071638532  3.7870088320051218 12.1422550407302428
 -1.3118583071638532  3.7870088320051218 12.1422550407302428
  0.0000000000000000  1.5148034928020515 12.1422550407302428
  0.0003617999743965  3.0765840822796795 14.2645267905436484
  1.3532790042326388  0.7342882480366965 14.2626615906756431
  3.8950428243598911  0.7343555480319338 14.2630764906462808
  2.6238203143203682  3.0312841854854127 14.5651397692701980
  2.6236845143299785  3.0299727855782166 16.3686602416406437
