Ag Ir Ag Ir Ag Ir  H 
 1.0000000000000000
     5.7908915901965496    0.0000000000000000    0.0000000000000000
    -2.8954457950982748    5.0150586450998427    0.0000000000000000
     0.0000000000000000    0.0000000000000000   24.7282412500590034
 Ag  Ir  Ag  Ir  Ag  Ir  H  
   3   1   3   1   3   1   1
Cartesian
  0.0000000000000000  0.0000000000000000  9.9999991779088049
 -1.4477228975491374  2.5075293225499213  9.9999991779088049
  1.4477228975491374  2.5075293225499213  9.9999991779088049
  2.8954457950982748  0.0000000000000000  9.9999991779088049
  2.8954457979937205  1.6716862133615946 12.3641206250295017
  1.4477229004445831  4.1792155359115162 12.3641206250295017
 -1.4477228946536917  4.1792155359115162 12.3641206250295017
  0.0000000028954457  1.6716862133615946 12.3641206250295017
  0.0644629224995807  3.3599519147154298 14.8325988852769104
  1.4943165444743651  0.8833750877828449 14.8325984896250507
  4.4043313107481499  0.8711514490370408 14.8220573349449758
  2.9499085948466015  3.3748138203476024 14.6725159171788171
 -2.1331691408459634  3.7834904227556310 16.0433021823077517
