Ag Pt Ag Pt Ag Pt  H 
 1.0000000000000000
     5.8288715875088224    0.0000000000000000    0.0000000000000000
    -2.9144357937544112    5.0479516427721070    0.0000000000000000
     0.0000000000000000    0.0000000000000000   24.7592522478644526
 Ag  Pt  Ag  Pt  Ag  Pt  H  
   3   1   3   1   3   1   1
Cartesian
  0.0000000000000000  0.0000000000000000  9.9999991386905887
 -1.4572178968772056  2.5239758213860535  9.9999991386905887
  1.4572178968772056  2.5239758213860535  9.9999991386905887
  2.9144357937544112  0.0000000000000000  9.9999991386905887
  2.9144357966688470  1.6826505459080519 12.3796261239322263
  1.4572178997916416  4.2066263672941053 12.3796261239322263
 -1.4572178939627698  4.2066263672941053 12.3796261239322263
  0.0000000029144357  1.6826505459080519 12.3796261239322263
 -0.0027322019524427  3.3408245636988236 14.8285151613563357
  1.4346545564590794  0.8511975191701097 14.8285151861155899
  4.3642584496978829  0.8370556321633671 14.8118041764034150
  2.9199480993260023  3.3684836738883219 14.6530538922476570
 -0.7048432925069925  4.6410101528423509 15.9206505565453220
