Ti Au Ti Au Ti Au Ti  H 
 1.0000000000000000
     5.7679505918200125    0.0000000000000000    0.0000000000000000
     2.7879208027074851    5.0494306426674429    0.0000000000000000
     0.0000000000000000    0.0000000000000000   24.7332452497048862
 Ti  Au  Ti  Au  Ti  Au  Ti  H  
   1   2   2   2   2   2   1   1
Cartesian
  0.0000000000000000  0.0000000000000000  9.9999992985488024
  1.3939604013537426  2.5247153213337215  9.9999992985488024
  2.8839752959100062  0.0000000000000000  9.9999992985488024
  4.2779356972637483  2.5247153213337215  9.9999992985488024
  5.7679504029788742  3.4040793938086056 12.3666226248524431
  4.3739900016251312  0.8793640724748840 12.3666226248524431
  2.8839751070688679  3.4040793938086056 12.3666226248524431
  1.4900147057151252  0.8793640724748840 12.3666226248524431
  3.1412714331665241  1.7573792450973165 14.7001141120166743
  4.4279873375802588  4.3149477022685785 14.7233043490282292
  6.1244902777744921  1.9129519456769375 14.7196375959534702
  7.3344021582959353  4.4252495556912921 14.7002990919578966
  4.1244877327318781  0.7317988650464483 15.9179424039761912
