Au Ag Au Ag Au Ag  H 
 1.0000000000000000
     5.9287945804375823    0.0000000000000000    0.0000000000000000
    -2.9643977902187557    5.1344866366482940    0.0000000000000000
     0.0000000000000000    0.0000000000000000   24.8408392420907944
 Au  Ag  Au  Ag  Au  Ag  H  
   3   1   3   1   3   1   1
Cartesian
  0.0000000000000000  0.0000000000000000  9.9999992923310419
 -1.4821986951093920  2.5672435183241329  9.9999992923310419
  1.4821986951093920  2.5672435183241329  9.9999992923310419
  2.9643973902187839  0.0000000000000000  9.9999992923310419
  2.9643973902187839  1.7114956788827551 12.4204196210453972
  1.4821986951093920  4.2787390972068948 12.4204196210453972
 -1.4821986951093920  4.2787390972068948 12.4204196210453972
  0.0000000000000000  1.7114956788827551 12.4204196210453972
  0.0000297999978911  3.4875304531982785 14.8976909457365814
  1.4652087963117144  0.8771333379279921 14.8549277487628011
  4.4634581841348968  0.8770544379335755 14.8549581487606499
  2.9644234902169373  3.4222745578162357 14.9086743449593211
  0.0000101999992782  3.3943754597905684 16.5013721322490348
