Ag Zr Ag Zr Ag Zr  H 
 1.0000000000000000
     6.0964905685702568    0.0000000000000000    0.0000000000000000
    -3.0482447842851639    5.2797156263708880    0.0000000000000000
     0.0000000000000000    0.0000000000000000   24.9777622324011794
 Ag  Zr  Ag  Zr  Ag  Zr  H  
   3   1   3   1   3   1   1
Cartesian
  0.0000000000000000  0.0000000000000000  9.9999993492026196
  4.5723681764276751  2.6398578131854440  9.9999993492026196
  1.5241228921425465  2.6398578131854440  9.9999993492026196
  3.0482452842851284  0.0000000000000000  9.9999993492026196
  3.0482454540000283  1.7599052070303909 12.4888811162005897
  1.5241230618574466  4.3997630202158344 12.4888811162005897
 -1.5241222224276820  4.3997630202158344 12.4888811162005897
  0.0000001697148999  1.7599052070303909 12.4888811162005897
  0.0263623205177432  3.4544277251132800 15.1312842527183360
  1.5275296263594265  0.9022049813677936 14.8873285970820266
  4.5673884781691942  0.8113740419823217 14.8936209200103278
  3.0576196844824266  3.5126871801291508 14.8917188134608054
 -1.6378819596899550  3.5892059033526662 16.2317502549338890
