Ag La Ag La Ag La  H 
 1.0000000000000000
     6.5582525358927928    0.0000000000000000    0.0000000000000000
    -3.2791267679463614    5.6796135980713478    0.0000000000000000
     0.0000000000000000    0.0000000000000000   25.3547892057201452
 Ag  La  Ag  La  Ag  La  H  
   3   1   3   1   3   1   1
Cartesian
  0.0000000000000000  0.0000000000000000  9.9999992222760703
 -1.6395633839731807  2.8398067990356739  9.9999992222760703
  1.6395628839732157  2.8398067990356739  9.9999992222760703
  3.2791262679463964  0.0000000000000000  9.9999992222760703
  3.2791261045588680  1.8932045307972447 12.6773946028600726
  1.6395627205856873  4.7330113298329186 12.6773946028600726
 -1.6395635473607095  4.7330113298329186 12.6773946028600726
 -0.0000001633875286  1.8932045307972447 12.6773946028600726
  0.1672805964146313  3.6514561547840545 15.4908177429534533
  1.6790642694562283  1.1171402260862204 15.2112926776798982
  4.6062926174866590  0.7009068185505587 15.0478422430667607
  3.4903390267695316  3.8448310040064917 15.4403723868003269
 -1.1950597766198987  4.1064728492110545 16.7063703787445270
