Cu Nb Cu Nb Cu Nb  H 
 1.0000000000000000
     5.4503486142957200    0.0000000000000000    0.0000000000000000
    -2.7251748071478250    4.7201406659702734    0.0000000000000000
     0.0000000000000000    0.0000000000000000   24.4501902697358133
 Cu  Nb  Cu  Nb  Cu  Nb  H  
   3   1   3   1   3   1   1
Cartesian
  0.0000000000000000  0.0000000000000000  9.9999994323728405
 -1.3625874035739125  2.3600703329851367  9.9999994323728405
  1.3625869035739475  2.3600703329851367  9.9999994323728405
  2.7251743071478600  0.0000000000000000  9.9999994323728405
  2.7251741432063796  1.5733802204167109 12.2250951348679067
  1.3625867396324671  3.9334505534018476 12.2250951348679067
 -1.3625875675153929  3.9334505534018476 12.2250951348679067
 -0.0000001639414805  1.5733802204167109 12.2250951348679067
 -0.0194588119443384  3.1560695447361140 14.4457175528021740
  1.4313379898786174  0.7470093579533608 14.2936582008865258
  4.0699222679001421  0.7988797342340740 14.4456798995091553
  2.6668216413967674  3.1804696699697170 14.3996715363751715
 -1.4010057850848268  2.3822635564503654 15.4206768605699160
