Cu Tc Cu Tc Cu Tc  H 
 1.0000000000000000
     5.2789656264239628    0.0000000000000000    0.0000000000000000
    -2.6394828132119814    4.5717176764737086    0.0000000000000000
     0.0000000000000000    0.0000000000000000   24.3102552796385751
 Cu  Tc  Cu  Tc  Cu  Tc  H  
   3   1   3   1   3   1   1
Cartesian
  0.0000000000000000  0.0000000000000000  9.9999991504035375
 -1.3197414066059907  2.2858588382368543  9.9999991504035375
  1.3197414066059907  2.2858588382368543  9.9999991504035375
  2.6394828132119814  0.0000000000000000  9.9999991504035375
  2.6394828158514638  1.5239058906339971 12.1551276398192876
  1.3197414092454731  3.8097647288708512 12.1551276398192876
 -1.3197414039665081  3.8097647288708512 12.1551276398192876
  0.0000000026394827  1.5239058906339971 12.1551276398192876
  0.1399879747301387  3.0009756217413277 14.3525303504125432
  1.4458088255242512  0.6891638783016782 14.2513301124986356
  4.0697592167573955  0.6641020968800988 14.3524984553576171
  2.7636092250959590  2.9761421016116172 14.2643774021969651
 -1.3026493063143785  2.2759391023638531 15.3156738569393163
