Co Ti Co Ti Co Ti  H 
 1.0000000000000000
     5.0712486411234501    0.0000000000000000    0.0000000000000000
    -2.5356238205617605    4.3918296892038233    0.0000000000000000
     0.0000000000000000    0.0000000000000000   24.1406552916406412
 Co  Ti  Co  Ti  Co  Ti  H  
   3   1   3   1   3   1   1
Cartesian
  0.0000000000000000  0.0000000000000000  9.9999991692267471
 -1.2678119102808802  2.1959148446019117  9.9999991692267471
  1.2678124102808448  2.1959148446019117  9.9999991692267471
  2.5356243205617250  0.0000000000000000  9.9999991692267471
  2.5356244897640039  1.4639432282706646 12.0703276458203206
  1.2678125794831239  3.6598580728725763 12.0703276458203206
 -1.2678117410786012  3.6598580728725763 12.0703276458203206
  0.0000001692022789  1.4639432282706646 12.0703276458203206
  0.0436728873897312  2.9533648879130494 14.1689128801360358
  1.3117173270552760  0.7570666146201219 14.1689085348180832
  3.8198920140225328  0.7415158966935280 14.1257292551680695
  2.5700673344716236  2.9477550589206496 14.1649653760420922
 -0.9861027981231489  3.8224827435612618 15.2367341865202164
