Au  Y Au  Y Au  Y  H 
 1.0000000000000000
     6.2185215599345014    0.0000000000000000    0.0000000000000000
    -3.1092607799672507    5.3853976188921013    0.0000000000000000
     0.0000000000000000    0.0000000000000000   25.0774002253501038
 Au  Y   Au  Y   Au  Y   H  
   3   1   3   1   3   1   1
Cartesian
  0.0000000000000000  0.0000000000000000  9.9999993813574228
 -1.5546303899836253  2.6926988094460507  9.9999993813574228
  1.5546303899836253  2.6926988094460507  9.9999993813574228
  3.1092607799672507  0.0000000000000000  9.9999993813574228
  3.1092607830765111  1.7951325378355680 12.5387001126750519
  1.5546303930928858  4.4878313472816185 12.5387001126750519
 -1.5546303868743647  4.4878313472816185 12.5387001126750519
  0.0000000031092606  1.7951325378355680 12.5387001126750519
  0.0886862411977654  3.7297879107302974 15.1451635905472095
  1.5446819649901733  0.9032940620391888 14.9842487343539990
  4.5873803058135199  0.7509614878913450 15.1451451837354440
  3.1647378276190317  3.5582228107315514 14.9905830097995203
 -1.0961655505586663  2.4279792932925406 15.6958678134279381
