Au  Y Au  Y Au  Y  H 
 1.0000000000000000
     6.2185215599345014    0.0000000000000000    0.0000000000000000
    -3.1092607799672507    5.3853976188921013    0.0000000000000000
     0.0000000000000000    0.0000000000000000   25.0774002253501038
 Au  Y   Au  Y   Au  Y   H  
   3   1   3   1   3   1   1
Cartesian
  0.0000000000000000  0.0000000000000000  9.9999992923310419
 -1.5546303899836253  2.6926987094460575  9.9999992923310419
  1.5546303899836253  2.6926987094460575  9.9999992923310419
  3.1092606799672580  0.0000000000000000  9.9999992923310419
  3.1092606799672580  1.7951324729640386 12.5387000126750596
  1.5546303899836253  4.4878312824100890 12.5387000126750596
 -1.5546303899836253  4.4878312824100890 12.5387000126750596
  0.0000000000000000  1.7951324729640386 12.5387000126750596
 -0.0001493999894274  3.5988744453188093 14.9721893404645634
  1.5620236894604245  0.8932177367897490 14.9720052404775910
  4.6564645704764329  0.8933015367838187 14.9718800404864503
  3.1090166799845247  3.5902245459309357 15.4446943070268503
  3.1092912799650922  3.5902680459278575 17.3823830699026196
