Pd Ir Pd Ir Pd Ir  H 
 1.0000000000000000
     5.5751046054671249    0.0000000000000000    0.0000000000000000
    -2.7875528027335275    4.8281826583244767    0.0000000000000000
     0.0000000000000000    0.0000000000000000   24.5520522625273507
 Pd  Ir  Pd  Ir  Pd  Ir  H  
   3   1   3   1   3   1   1
Cartesian
  0.0000000000000000  0.0000000000000000  9.9999992044573780
 -1.3937764013667637  2.4140913291622383  9.9999992044573780
  1.3937759013667987  2.4140913291622383  9.9999992044573780
  2.7875523027335625  0.0000000000000000  9.9999992044573780
  2.7875521388544602  1.6093942178320981 12.2760261312636754
  1.3937757374876965  4.0234855469943360 12.2760261312636754
 -1.3937765652458660  4.0234855469943360 12.2760261312636754
 -0.0000001638791026  1.6093942178320981 12.2760261312636754
 -0.0009345712425195  3.2006113467021455 14.6179236363248481
  1.3775690485346888  0.8129737317167026 14.6179238081892109
  4.1902712394272177  0.8098584337637066 14.6309219592816202
  2.7888275644081313  3.2195229181229110 14.4378105665926189
 -0.0022610598293773  4.8268753313060824 15.5084654132333917
