Ag Ga Ag Ga Ag Ga Ag Ga Ag Ga Ag  H 
 1.0000000000000000
     5.9687555776096657    0.0000000000000000    0.0000000000000000
     2.9308047925960277    5.1377916364144092    0.0000000000000000
     0.0000000000000000    0.0000000000000000   24.8581682408644760
 Ag  Ga  Ag  Ga  Ag  Ga  Ag  Ga  Ag  Ga  Ag  H  
   1   1   1   2   1   1   1   1   1   1   1   1
Cartesian
  1.4118299600926241  0.8970452412824084  9.9999991796429608
  4.3962077488974565  0.8970452412824084  9.9999991796429608
  2.8772323563906381  3.4659410594896132  9.9999991796429608
  5.8616101451954705  3.4659410594896132  9.9999991796429608
  2.9308050711323332  1.7329705271759108 12.4290841204322380
  5.9151828599371656  1.7329705271759108 12.4290841204322380
  4.3962074674303464  4.3018663453831154 12.4290841204322380
  7.3805852562351788  4.3018663453831154 12.4290841204322380
  0.0901145388300644 -0.1045370485729251 14.9725847713686395
  3.1698992059575022 -0.1058613554695440 14.9047923455453706
  1.6012431370708158  2.5445348661317295 14.9725691604389848
  4.4093187386653305  2.5919836357907595 14.9059914787231413
  0.5878259544876260  1.3670646004865152 15.9296662092299108
