Ga Tl Ga Tl Ga Tl Ga  H 
 1.0000000000000000
     6.4280385451076336    0.0000000000000000    0.0000000000000000
     3.2140197725537818    5.5668446060516601    0.0000000000000000
     0.0000000000000000    0.0000000000000000   25.2484702132440120
 Ga  Tl  Ga  Tl  Ga  Tl  Ga  H  
   1   1   3   1   3   1   2   1
Cartesian
  0.0000000000000000  0.0000000000000000  9.9999992496960832
  1.6070098862768909  2.7834223030258300  9.9999992496960832
  3.2140192725538168  0.0000000000000000  9.9999992496960832
  4.8210291588307079  2.7834223030258300  9.9999992496960832
  6.4280388816549632  3.7112297392233882 12.6242351066220060
  4.8210289953780725  0.9278074361975581 12.6242351066220060
  3.2140196091011464  3.7112297392233882 12.6242351066220060
  1.6070097228242552  0.9278074361975581 12.6242351066220060
  3.1054643658494143  1.9184412841538310 15.1408020436307940
  4.8223974337932320  4.6382148467025850 15.6930451181177997
  6.5320837080301963  1.9208165175761180 15.1415984308782594
  8.0302998703834554  4.5168058737695116 15.1407247075665321
  4.8213684854822692  0.9242054205289018 15.5770348358478490
