Pd Fe Pd Fe Pd Fe  H 
 1.0000000000000000
     5.5489316073193073    0.0000000000000000    0.0000000000000000
    -2.7744658036596537    4.8055156599285498    0.0000000000000000
     0.0000000000000000    0.0000000000000000   24.5306822640396440
 Pd  Fe  Pd  Fe  Pd  Fe  H  
   3   1   3   1   3   1   1
Cartesian
  0.0000000000000000  0.0000000000000000  9.9999993974528838
 -1.3872329018298268  2.4027578299642749  9.9999993974528838
  1.3872329018298268  2.4027578299642749  9.9999993974528838
  2.7744658036596537  0.0000000000000000  9.9999993974528838
  2.7744658064341192  1.6018385517076781 12.2653411320198220
  1.3872329046042924  4.0045963816719530 12.2653411320198220
 -1.3872328990553613  4.0045963816719530 12.2653411320198220
  0.0000000027744658  1.6018385517076781 12.2653411320198220
  0.0185356317198289  3.1851647914110353 14.5723976106756297
  1.3804218851496834  0.8262121392184674 14.5723902269402679
  4.1922994874072703  0.8185802931617616 14.5147932152729577
  2.7663374040287536  3.1989451457836338 14.3967283907236592
 -1.3967975453009789  3.9991026248647250 15.3941328812565477
