Pd Cr Pd Cr Pd Cr  H 
 1.0000000000000000
     5.5031976105557607    0.0000000000000000    0.0000000000000000
    -2.7515988052778804    4.7659086627314142    0.0000000000000000
     0.0000000000000000    0.0000000000000000   24.4933402666822175
 Pd  Cr  Pd  Cr  Pd  Cr  H  
   3   1   3   1   3   1   1
Cartesian
  0.0000000000000000  0.0000000000000000  9.9999991966275523
 -1.3757994026389402  2.3829543313657071  9.9999991966275523
  1.3757994026389402  2.3829543313657071  9.9999991966275523
  2.7515988052778804  0.0000000000000000  9.9999991966275523
  2.7515988080294789  1.5886362193218353 12.2466701333411088
  1.3757994053905387  3.9715905506875422 12.2466701333411088
 -1.3757993998873417  3.9715905506875422 12.2466701333411088
  0.0000000027515987  1.5886362193218353 12.2466701333411088
  0.0590634783435116  3.1831480271817063 14.5537086301296235
  1.4104185356951906  0.8425328845576259 14.5537083851962219
  4.1937506109603397  0.8326276296929861 14.4602900261255485
  2.7032205335301382  3.1493430652960765 14.3334764916950093
 -1.5538886144000332  3.8687685972207033 15.3670001228686797
