Pd  W Pd  W Pd  W  H 
 1.0000000000000000
     5.6030096034923753    0.0000000000000000    0.0000000000000000
    -2.8015048017461877    4.8523486566143239    0.0000000000000000
     0.0000000000000000    0.0000000000000000   24.5748362609149993
 Pd  W   Pd  W   Pd  W   H  
   3   1   3   1   3   1   1
Cartesian
  0.0000000000000000  0.0000000000000000  9.9999992276708483
 -1.4007524008730938  2.4261743283071620  9.9999992276708483
  1.4007524008730938  2.4261743283071620  9.9999992276708483
  2.8015048017461877  0.0000000000000000  9.9999992276708483
  2.8015048045476925  1.6174495505873252 12.2874181304574996
  1.4007524036745984  4.0436238788944872 12.2874181304574996
 -1.4007523980715892  4.0436238788944872 12.2874181304574996
  0.0000000028015047  1.6174495505873252 12.2874181304574996
  0.0522351019898488  3.2303648385295229 14.6025978495772755
  1.4229428262497210  0.8562292031352099 14.6025977758527663
  4.2520420216628736  0.8374681550745061 14.5226404987981841
  2.7375778127700827  3.1979910988898288 14.4746329909412541
 -1.6829801884536928  3.8806800021330341 15.6473679166039457
