Pd Re Pd Re Pd Re  H 
 1.0000000000000000
     5.5712246057417012    0.0000000000000000    0.0000000000000000
    -2.7856128028708151    4.8248226585622538    0.0000000000000000
     0.0000000000000000    0.0000000000000000   24.5488842627515425
 Pd  Re  Pd  Re  Pd  Re  H  
   3   1   3   1   3   1   1
Cartesian
  0.0000000000000000  0.0000000000000000  9.9999991250764122
 -1.3928064014354076  2.4124113292811269  9.9999991250764122
  1.3928059014354430  2.4124113292811269  9.9999991250764122
  2.7856123028708506  0.0000000000000000  9.9999991250764122
  2.7856121389898081  1.6082742179124772 12.2744421313757712
  1.3928057375544003  4.0206855471936036 12.2744421313757712
 -1.3928065653164501  4.0206855471936036 12.2744421313757712
 -0.0000001638810424  1.6082742179124772 12.2744421313757712
  0.2507539046572562  3.0466984813138982 14.5901784967580088
  1.6275637177514870  0.6686073797066610 14.5578843658637052
  4.4508983168881917  0.6719111046497716 14.5901401268519066
  2.9620414624079521  3.1147095385458683 14.4734176941411068
 -1.4322307513208352  2.4353385681163191 15.6142006634985329
