Pd  W Pd  W Pd  W  H 
 1.0000000000000000
     5.6030096034923753    0.0000000000000000    0.0000000000000000
    -2.8015048017461877    4.8523486566143239    0.0000000000000000
     0.0000000000000000    0.0000000000000000   24.5748362609149993
 Pd  W   Pd  W   Pd  W   H  
   3   1   3   1   3   1   1
Cartesian
  0.0000000000000000  0.0000000000000000  9.9999992923310419
 -1.4007523008731009  2.4261741283071760  9.9999992923310419
  1.4007523008731009  2.4261741283071760  9.9999992923310419
  2.8015046017462018  0.0000000000000000  9.9999992923310419
  2.8015046017462018  1.6174493855381198 12.2874182304574919
  1.4007523008731009  4.0436235138452954 12.2874182304574919
 -1.4007523008731009  4.0436235138452954 12.2874182304574919
  0.0000000000000000  1.6174493855381198 12.2874182304574919
 -0.0000024999998231  3.1995214735797814 14.5334370715137009
  1.3700736030441374  0.8263254415235095 14.5335812715034969
  4.2329273004488535  0.8263251415235306 14.5335728715040915
  2.8015657017418780  3.2347769710848588 14.5870637677187052
  2.8014799017479497  3.2348839710772870 16.2999841465006376
