Co Zr Co Zr Co Zr  H 
 1.0000000000000000
     5.2721056269094237    0.0000000000000000    0.0000000000000000
    -2.6360528134547119    4.5657776768940641    0.0000000000000000
     0.0000000000000000    0.0000000000000000   24.3046552800348685
 Co  Zr  Co  Zr  Co  Zr  H  
   3   1   3   1   3   1   1
Cartesian
  0.0000000000000000  0.0000000000000000  9.9999993858424361
 -1.3180264067273559  2.2828888384470321  9.9999993858424361
  1.3180264067273559  2.2828888384470321  9.9999993858424361
  2.6360528134547119  0.0000000000000000  9.9999993858424361
  2.6360528160907646  1.5219258907760955 12.1523276400174343
  1.3180264093634086  3.8048147292231276 12.1523276400174343
 -1.3180264040913032  3.8048147292231276 12.1523276400174343
  0.0000000026360527  1.5219258907760955 12.1523276400174343
  0.0475602368838104  3.0567648007277586 14.2769119357530307
  1.4607443331724075  0.6784334570900329 14.1975743710456879
  3.9665454012666514  0.7131160631370322 14.2768491811330964
  2.6624539183502165  3.0284907567542692 14.3638829121534837
 -0.8442827767211806  2.0092180695152924 15.2828809372633234
