Pd Os Pd Os Pd Os  H 
 1.0000000000000000
     5.5605096064999682    0.0000000000000000    0.0000000000000000
    -2.7802548032499841    4.8155426592189698    0.0000000000000000
     0.0000000000000000    0.0000000000000000   24.5401352633706828
 Pd  Os  Pd  Os  Pd  Os  H  
   3   1   3   1   3   1   1
Cartesian
  0.0000000000000000  0.0000000000000000  9.9999992291398918
 -1.3901274016249920  2.4077713296094849  9.9999992291398918
  1.3901274016249920  2.4077713296094849  9.9999992291398918
  2.7802548032499841  0.0000000000000000  9.9999992291398918
  2.7802548060302388  1.6051808848011424 12.2700676316853414
  1.3901274044052467  4.0129522144106273 12.2700676316853414
 -1.3901273988447371  4.0129522144106273 12.2700676316853414
  0.0000000027802548  1.6051808848011424 12.2700676316853414
  0.0247488412680761  3.2136174376056164 14.5918739523262850
  1.3833452035738674  0.8366720579200093 14.5883886641556408
  4.1914668315671468  0.8342217797953470 14.5291615385001993
  2.7060634063379938  3.1728851700226124 14.4505583318652668
 -1.7769311601812936  3.7655841830472001 15.5977958638718270
