Pd Fe Pd Fe Pd Fe  H 
 1.0000000000000000
     5.5489316073193073    0.0000000000000000    0.0000000000000000
    -2.7744658036596537    4.8055156599285498    0.0000000000000000
     0.0000000000000000    0.0000000000000000   24.5306822640396440
 Pd  Fe  Pd  Fe  Pd  Fe  H  
   3   1   3   1   3   1   1
Cartesian
  0.0000000000000000  0.0000000000000000  9.9999993974528838
 -1.3872329018298268  2.4027578299642749  9.9999993974528838
  1.3872329018298268  2.4027578299642749  9.9999993974528838
  2.7744658036596537  0.0000000000000000  9.9999993974528838
  2.7744658064341192  1.6018385517076781 12.2653411320198220
  1.3872329046042924  4.0045963816719530 12.2653411320198220
 -1.3872328990553613  4.0045963816719530 12.2653411320198220
  0.0000000027744658  1.6018385517076781 12.2653411320198220
  0.0057127416172988  3.1964949142644654 14.5640796978721720
  1.3553465933776381  0.8193314625366276 14.5364266767775199
  4.1707757865360238  0.7995647811961424 14.5640793789733038
  2.7713255189908499  3.2054920409587666 14.3679084696043873
 -0.6814048200203828  1.9952487708744961 15.6404327795070373
