In Ag In Ag In Ag In Ag  H 
 1.0000000000000000
     6.3048255538270359    0.0000000000000000    0.0000000000000000
     3.0602937834324933    5.5122976099117826    0.0000000000000000
     0.0000000000000000    0.0000000000000000   25.1709142187324098
 In  Ag  In  Ag  In  Ag  In  Ag  H  
   1   1   1   2   2   2   2   1   1
Cartesian
  4.5904403650169225  0.8464212522474054  9.9999992946053489
  1.4380275881034044  0.8464212522474054  9.9999992946053489
  2.9681744798196510  3.6025700572032968  9.9999992946053489
  6.1205872567331685  3.6025700572032968  9.9999992946053489
  3.0602936330491444  1.8012850313577971 12.5854571093662049
  6.2127064099626628  1.8012850313577971 12.5854571093662049
  4.5904405247653912  4.5574338363136890 12.5854571093662049
  7.7428533016789096  4.5574338363136890 12.5854571093662049
 -0.0149255771587492 -0.0247987851227448 15.1845393610626314
  3.1634207275606054 -0.0572080577930431 15.4008104234632324
  7.9791596877129765  2.8641796954825600 15.2729590940864259
  4.6039834070063606  2.7714368426637201 15.0277087078039706
  6.9685970845594092  1.4131846623910174 16.1740919188290100
