Sn Pt Sn Pt Sn Pt  H 
 1.0000000000000000
     6.4602445428285149    0.0000000000000000    0.0000000000000000
    -3.2301217714142934    5.5947356040779006    0.0000000000000000
     0.0000000000000000    0.0000000000000000   25.2747662113831275
 Sn  Pt  Sn  Pt  Sn  Pt  H  
   3   1   3   1   3   1   1
Cartesian
  0.0000000000000000  0.0000000000000000  9.9999992923310419
 -1.6150610857071324  2.7973679020389430  9.9999992923310419
  1.6150610857071324  2.7973679020389430  9.9999992923310419
  3.2301222714142575  0.0000000000000000  9.9999992923310419
  3.2301222714142575  1.8649119680259598 12.6373831056915638
  1.6150610857071324  4.6622798700649026 12.6373831056915638
 -1.6150610857071324  4.6622798700649026 12.6373831056915638
  0.0000000000000000  1.8649119680259598 12.6373831056915638
  0.0000206999985351  3.6645251406729131 15.2288097223043337
  1.5586015897025960  0.9649871317108514 15.2289405222950780
  4.9015995531289906  0.9650030317097262 15.2291895222774567
  3.2300391714201382  3.7299037360462721 14.8925123461030573
  3.2300768714174706  3.7298039360533348 16.5011779322627810
