Au Nb Au Nb Au Nb  H 
 1.0000000000000000
     5.9489345790123362    0.0000000000000000    0.0000000000000000
    -2.9744677895061331    5.1519286354139773    0.0000000000000000
     0.0000000000000000    0.0000000000000000   24.8572832409271030
 Au  Nb  Au  Nb  Au  Nb  H  
   3   1   3   1   3   1   1
Cartesian
  0.0000000000000000  0.0000000000000000  9.9999990913395251
 -1.4872338947530666  2.5759643177069886  9.9999990913395251
  1.4872333947531016  2.5759643177069886  9.9999990913395251
  2.9744672895061681  0.0000000000000000  9.9999990913395251
  2.9744671258139803  1.7173095434206829 12.4286416204635515
  1.4872332310609138  4.2932738611276715 12.4286416204635515
 -1.4872340584452541  4.2932738611276715 12.4286416204635515
 -0.0000001636921876  1.7173095434206829 12.4286416204635515
  0.0924948149787435  3.4546875438608242 14.9581763325282786
  1.5508591024150975  0.9287115653946758 14.9581726785076441
  4.5080334173744347  0.8854129900311348 14.8235509519333952
  2.9361042840135827  3.4124676277956798 14.6968622284472232
 -1.7069393335686507  4.1664272524806316 15.8240480514752750
