Cd Mo Cd Mo Cd Mo  H 
 1.0000000000000000
     6.0516175717457799    0.0000000000000000    0.0000000000000000
    -3.0258087858728899    5.2408546291209603    0.0000000000000000
     0.0000000000000000    0.0000000000000000   24.9411232349940057
 Cd  Mo  Cd  Mo  Cd  Mo  H  
   3   1   3   1   3   1   1
Cartesian
  0.0000000000000000  0.0000000000000000  9.9999991764374254
 -1.5129043929364450  2.6204273145604802  9.9999991764374254
  1.5129043929364450  2.6204273145604802  9.9999991764374254
  3.0258087858728899  0.0000000000000000  9.9999991764374254
  3.0258087888986984  1.7469515412933687 12.4705616174970029
  1.5129043959622535  4.3673788558538487 12.4705616174970029
 -1.5129043899106362  4.3673788558538487 12.4705616174970029
  0.0000000030258087  1.7469515412933687 12.4705616174970029
 -0.0000152440246630  3.5371289597749160 15.1286070805009878
  1.4644758301117171  0.8620686443801688 15.0915567426419255
  4.5871423286409669  0.8620644097696284 15.0915559195848594
  3.0258367957848202  3.5063965305803495 14.7599005103104588
  3.0258340816343399  2.2142900627297051 15.9959987895668636
