Cd Rh Cd Rh Cd Rh  H 
 1.0000000000000000
     6.0014875752933241    0.0000000000000000    0.0000000000000000
    -3.0007437876466621    5.1974406321932349    0.0000000000000000
     0.0000000000000000    0.0000000000000000   24.9001932378904947
 Cd  Rh  Cd  Rh  Cd  Rh  H  
   3   1   3   1   3   1   1
Cartesian
  0.0000000000000000  0.0000000000000000  9.9999993765714166
 -1.5003718938233310  2.5987203160966175  9.9999993765714166
  1.5003718938233310  2.5987203160966175  9.9999993765714166
  3.0007437876466621  0.0000000000000000  9.9999993765714166
  3.0007437906474053  1.7324802089985982 12.4500966189452473
  1.5003718968240745  4.3312005250952152 12.4500966189452473
 -1.5003718908225874  4.3312005250952152 12.4500966189452473
  0.0000000030007437  1.7324802089985982 12.4500966189452473
  0.0299667988033505  3.4643308987903842 15.1459900681199588
  1.5126204048343421  0.8591617958600856 14.9908145040803618
  4.5166414758138886  0.8406145886332068 15.1459649189247898
  2.9434693681644908  3.4980288065807654 14.6025847348241591
 -0.7671817426215097  2.1754043533340530 16.4009150616623920
