Cd Ti Cd Ti Cd Ti  H 
 1.0000000000000000
     6.1532885645508388    0.0000000000000000    0.0000000000000000
    -3.0766437822754544    5.3289036228900057    0.0000000000000000
     0.0000000000000000    0.0000000000000000   25.0241372291193649
 Cd  Ti  Cd  Ti  Cd  Ti  H  
   3   1   3   1   3   1   1
Cartesian
  0.0000000000000000  0.0000000000000000  9.9999991781530664
 -1.5383218911377272  2.6644518114450029  9.9999991781530664
  1.5383223911376922  2.6644518114450029  9.9999991781530664
  3.0766442822754194  0.0000000000000000  9.9999991781530664
  3.0766444520187184  1.7763012058537007 12.5120686145596824
  1.5383225608809914  4.4407530172987038 12.5120686145596824
 -1.5383217213944280  4.4407530172987038 12.5120686145596824
  0.0000001697432990  1.7763012058537007 12.5120686145596824
  0.0603490067159842  3.5243735732435413 15.1732934950273872
  1.5440524006823073  0.9545304506063742 15.1732945710652878
  4.5927995634663308  0.8753509840857957 15.0865688440806611
  3.0849948378549019  3.5574225755592210 14.8869201463531251
 -1.8106837264356701  4.2835031356795419 16.0336610193151792
