Hg Cu Hg Cu Hg Cu  H 
 1.0000000000000000
     6.3160685530314034    0.0000000000000000    0.0000000000000000
    -3.1580337765157367    5.4698756129138557    0.0000000000000000
     0.0000000000000000    0.0000000000000000   25.1570462197138056
 Hg  Cu  Hg  Cu  Hg  Cu  H  
   3   1   3   1   3   1   1
Cartesian
  0.0000000000000000  0.0000000000000000  9.9999992923310419
 -1.5790170882578545  2.7349378064569279  9.9999992923310419
  1.5790170882578545  2.7349378064569279  9.9999992923310419
  3.1580340765157158  0.0000000000000000  9.9999992923310419
  3.1580340765157158  1.8232918709712849 12.5785233098568892
  1.5790170882578545  4.5582295774282198 12.5785233098568892
 -1.5790170882578545  4.5582295774282198 12.5785233098568892
  0.0000000000000000  1.8232918709712849 12.5785233098568892
  0.0011014999220503  3.6336211428598930 15.5567640990960179
  1.5675680890680646  0.9183507350111647 15.5537208993113758
  4.7484516639667929  0.9172956350858308 15.5542533992736942
  3.1585948764760294  3.6465471419451605 14.6716119617354916
  3.1578826765264298  3.6465486419450541 16.1923797541154677
