Hg Cd Hg Cd Hg Cd  H 
 1.0000000000000000
     7.4547524724502718    0.0000000000000000    0.0000000000000000
    -3.7273767362251005    6.4560055431284962    0.0000000000000000
     0.0000000000000000    0.0000000000000000   26.0867791539194869
 Hg  Cd  Hg  Cd  Hg  Cd  H  
   3   1   3   1   3   1   1
Cartesian
  0.0000000000000000  0.0000000000000000  9.9999992923310419
 -1.8636881681125643  3.2280026715642549  9.9999992923310419
  1.8636881681125643  3.2280026715642549  9.9999992923310419
  3.7273764362251218  0.0000000000000000  9.9999992923310419
  3.7273764362251218  2.1520017477095061 13.0433893769597589
  1.8636881681125643  5.3800044192737611 13.0433893769597589
 -1.8636881681125643  5.3800044192737611 13.0433893769597589
  0.0000000000000000  2.1520017477095061 13.0433893769597589
  0.0003648999741772  4.2873820965952572 16.3075507459651732
  1.8501306690719865  1.0830020233593034 16.3089250458679160
  5.6046562033758507  1.0841431232785512 16.3094603458300398
  3.7274156362223474  4.3045611953795451 15.1599871271746949
  3.7274229362218310  4.3037142954394776 16.9035097037910056
