Hg Sc Hg Sc Hg Sc  H 
 1.0000000000000000
     6.4292865450193171    0.0000000000000000    0.0000000000000000
    -3.2146437725096231    5.5679256059751605    0.0000000000000000
     0.0000000000000000    0.0000000000000000   25.2494892131719020
 Hg  Sc  Hg  Sc  Hg  Sc  H  
   3   1   3   1   3   1   1
Cartesian
  0.0000000000000000  0.0000000000000000  9.9999993263582390
 -1.6073218862548115  2.7839628029875803  9.9999993263582390
  1.6073213862548470  2.7839628029875803  9.9999993263582390
  3.2146432725096585  0.0000000000000000  9.9999993263582390
  3.2146431090576471  1.8559752001357450 12.6247446065859510
  1.6073212228028355  4.6399380031233255 12.6247446065859510
 -1.6073220497068230  4.6399380031233255 12.6247446065859510
 -0.0000001634520115  1.8559752001357450 12.6247446065859510
  0.1669852152046691  3.6355362839098224 15.5136947850567530
  1.7655865567620501  0.8366227821851345 15.4194622268428212
  4.9712211464813825  0.8213653074509146 15.5138889536288023
  3.2005547771350971  3.7203919545544113 15.0417028765098006
 -2.0441139841659304  3.0359948052080545 16.3684297376186407
