Zn Pd Zn Pd Zn Pd  H 
 1.0000000000000000
     5.5049026104351029    0.0000000000000000    0.0000000000000000
    -2.7524518052175160    4.7673856626268920    0.0000000000000000
     0.0000000000000000    0.0000000000000000   24.4947332665836406
 Zn  Pd  Zn  Pd  Zn  Pd  H  
   3   1   3   1   3   1   1
Cartesian
  0.0000000000000000  0.0000000000000000  9.9999994243002384
 -1.3762259026087580  2.3836928313134460  9.9999994243002384
  1.3762254026087934  2.3836928313134460  9.9999994243002384
 -0.0000004999999645  4.7673856626268920  9.9999994243002384
  2.7524511413033483  1.5891285526198355 12.2473666332918203
  1.3762252386945901  3.9728213839332813 12.2473666332918203
 -1.3762260665229613  3.9728213839332813 12.2473666332918203
 -0.0000001639142034  1.5891285526198355 12.2473666332918203
  0.0186092162033245  3.1991516078892177 14.7120833998829781
  1.4434349403257167  0.7557609869199212 14.5509979751546794
  4.1198864396043220  0.7680007442658355 14.7120835468513782
  2.6830609931749692  3.2183195255428734 14.3261127598340376
 -0.6797104553775015  1.9815595314194574 15.7668364612248428
