Cu  W Cu  W Cu  W  H 
 1.0000000000000000
     5.3374946222820476    0.0000000000000000    0.0000000000000000
    -2.6687468111410593    4.6224056728866758    0.0000000000000000
     0.0000000000000000    0.0000000000000000   24.3580442762566989
 Cu  W   Cu  W   Cu  W   H  
   3   1   3   1   3   1   1
Cartesian
  0.0000000000000000  0.0000000000000000  9.9999992876572943
 -1.3343734055705296  2.3112028364433379  9.9999992876572943
  1.3343739055704942  2.3112028364433379  9.9999992876572943
  2.6687473111410238  0.0000000000000000  9.9999992876572943
  2.6687474804764255  1.5408018894214235 12.1790221381283494
  1.3343740749058961  3.8520047258647612 12.1790221381283494
 -1.3343732362351277  3.8520047258647612 12.1790221381283494
  0.0000001693354019  1.5408018894214235 12.1790221381283494
 -0.0137117427652687  3.0904881442390599 14.3509048176485265
  1.3352234582869089  0.7541804078063199 14.3509062791311823
  3.9751610470889145  0.7543227732786391 14.2738194020883427
  2.6166943173904054  3.0516318693395661 14.2490178465419053
 -1.4217728026327712  3.8016242250668633 15.3258773382096791
