Cd Hf Cd Hf Cd Hf  H 
 1.0000000000000000
     6.2612735569090754    0.0000000000000000    0.0000000000000000
    -3.1306367784545377    5.4224216162720271    0.0000000000000000
     0.0000000000000000    0.0000000000000000   25.1123072228798456
 Cd  Hf  Cd  Hf  Cd  Hf  H  
   3   1   3   1   3   1   1
Cartesian
  0.0000000000000000  0.0000000000000000  9.9999993823116995
 -1.5653183892272688  2.7112108081360136  9.9999993823116995
  1.5653183892272688  2.7112108081360136  9.9999993823116995
  3.1306367784545377  0.0000000000000000  9.9999993823116995
  3.1306367815851743  1.8074738702832018 12.5561536114399228
  1.5653183923579057  4.5186846784192154 12.5561536114399228
 -1.5653183860966320  4.5186846784192154 12.5561536114399228
  0.0000000031306366  1.8074738702832018 12.5561536114399228
  0.0710602047930409  3.6174454760579282 15.3338109966521721
  1.5964708142095074  0.9611890240001096 15.1911603847987600
  4.6885882314806668  0.8313789074931494 15.1866851205285709
  3.1639686525815591  3.6103255978892124 15.0305937740417921
 -1.7519720412434934  3.5646517272521110 16.4007855185163010
