Cd  V Cd  V Cd  V  H 
 1.0000000000000000
     6.0402445725506109    0.0000000000000000    0.0000000000000000
    -3.0201227862752704    5.2310056298179433    0.0000000000000000
     0.0000000000000000    0.0000000000000000   24.9318372356511482
 Cd  V   Cd  V   Cd  V   H  
   3   1   3   1   3   1   1
Cartesian
  0.0000000000000000  0.0000000000000000  9.9999991298013420
 -1.5100613931376352  2.6155028149089716  9.9999991298013420
  1.5100608931376702  2.6155028149089716  9.9999991298013420
  3.0201222862753054  0.0000000000000000  9.9999991298013420
  3.0201221226287727  1.7436685415289792 12.4659186178255741
  1.5100607294911375  4.3591713564379511 12.4659186178255741
 -1.5100615567841678  4.3591713564379511 12.4659186178255741
 -0.0000001636465325  1.7436685415289792 12.4659186178255741
  0.0626232319244147  3.4789883980727687 15.1168685640978389
  1.5395838832755830  0.9181071319226976 15.0883334780175442
  4.5610748255948232  0.8228324096622225 15.0721448122592019
  3.0522090569173206  3.4664928333745415 14.7766845402302529
 -1.8182105215885176  3.4924346771201935 16.0724206433888384
