Zn Ni Zn Ni Zn Ni  H 
 1.0000000000000000
     5.3307366227602904    0.0000000000000000    0.0000000000000000
    -2.6653678113801806    4.6165526733008750    0.0000000000000000
     0.0000000000000000    0.0000000000000000   24.3525262766471897
 Zn  Ni  Zn  Ni  Zn  Ni  H  
   3   1   3   1   3   1   1
Cartesian
  0.0000000000000000  0.0000000000000000  9.9999992136180715
 -1.3326839056900903  2.3082763366504375  9.9999992136180715
  1.3326844056900549  2.3082763366504375  9.9999992136180715
  2.6653683113801452  0.0000000000000000  9.9999992136180715
  2.6653684807121683  1.5388508895614408 12.1762631383235949
  1.3326845750220779  3.8471272262118785 12.1762631383235949
 -1.3326837363580673  3.8471272262118785 12.1762631383235949
  0.0000001693320228  1.5388508895614408 12.1762631383235949
  0.0652793973217580  3.0661883460495138 14.5223568568923564
  1.3553474567246591  0.8317216751343387 14.5223515480416303
  4.0216760284035500  0.7830665569584357 14.4206619004348653
  2.7330366304908198  3.1167746189907377 14.2398857190678534
 -1.6490605678738854  3.6644725671946432 15.3927471954907311
