Ag Sn Ag Sn Ag Sn Ag  H 
 1.0000000000000000
     6.0945045687107999    0.0000000000000000    0.0000000000000000
     3.0472527843553645    5.2779956264926069    0.0000000000000000
     0.0000000000000000    0.0000000000000000   24.9761412325158929
 Ag  Sn  Ag  Sn  Ag  Sn  Ag  H  
   1   1   3   1   3   1   2   1
Cartesian
  0.0000000000000000  0.0000000000000000  9.9999994020246188
  1.5236263921776823  2.6389978132463034  9.9999994020246188
  3.0472522843554000  0.0000000000000000  9.9999994020246188
  4.5708786765330824  2.6389978132463034  9.9999994020246188
  6.0945049050913616  3.5186637527544029 12.4880706162579465
  4.5708785129136791  0.8796659395080997 12.4880706162579465
  3.0472526207359616  3.5186637527544029 12.4880706162579465
  1.5236262285582796  0.8796659395080997 12.4880706162579465
  2.9854566463525920  1.7950418896098006 15.1219434766674361
  4.5714345491987114  4.3975975445431823 15.0059104436557700
  6.1558713962025440  1.7952900398521758 15.1216416649767833
  7.6174972070334377  4.3273565800769784 15.1220458039180663
  4.5704978318708669  0.8796243805705367 15.7453439156961519
