Co Ta Co Ta Co Ta  H 
 1.0000000000000000
     5.1526726353613270    0.0000000000000000    0.0000000000000000
    -2.5763358176806985    4.4623456842136262    0.0000000000000000
     0.0000000000000000    0.0000000000000000   24.2071382869358445
 Co  Ta  Co  Ta  Co  Ta  H  
   3   1   3   1   3   1   1
Cartesian
  0.0000000000000000  0.0000000000000000  9.9999993757417158
 -1.2881679088403493  2.2311728421068131  9.9999993757417158
  1.2881684088403142  2.2311728421068131  9.9999993757417158
  2.5763363176806635  0.0000000000000000  9.9999993757417158
  2.5763364869236547  1.4874485599170935 12.1035691434679222
  1.2881685780833054  3.7186214020239068 12.1035691434679222
 -1.2881677395973581  3.7186214020239068 12.1035691434679222
  0.0000001692429911  1.4874485599170935 12.1035691434679222
  0.0238675943913844  2.9886826934422306 14.2222311904590555
  1.3069196537510757  0.7537589329612924 14.2248412283162917
  3.8470449798545547  0.7325166056834461 14.1726715531371390
  2.5809248093202326  2.9713553248282070 14.1632880675015560
 -1.0564423468522404  3.8501002185419724 15.2746357286480290
