Zn Ru Zn Ru Zn Ru  H 
 1.0000000000000000
     5.4188226165267173    0.0000000000000000    0.0000000000000000
    -2.7094118082633232    4.6928386679023522    0.0000000000000000
     0.0000000000000000    0.0000000000000000   24.4244492715574211
 Zn  Ru  Zn  Ru  Zn  Ru  H  
   3   1   3   1   3   1   1
Cartesian
  0.0000000000000000  0.0000000000000000  9.9999992923310419
 -1.3547057041316759  2.3464192339511825  9.9999992923310419
  1.3547057041316759  2.3464192339511825  9.9999992923310419
  2.7094115082633445  0.0000000000000000  9.9999992923310419
  2.7094115082633445  1.5642794893007888 12.2122245357787165
  1.3547057041316759  3.9106986232519785 12.2122245357787165
 -1.3547057041316759  3.9106986232519785 12.2122245357787165
  0.0000000000000000  1.5642794893007888 12.2122245357787165
 -0.0000039999997169  3.1298343785113212 14.5821257680681509
  1.3558242040525232  0.7814955446959823 14.5821233680683218
  4.0630070124735855  0.7815067446951897 14.5821077680694273
  2.7094096082634791  3.1285595786015348 14.2837263891849524
  2.7094093082635005  3.1285581786016339 15.9146444737699326
