Sn La Sn La Sn La  H 
 1.0000000000000000
     6.8572295147351197    0.0000000000000000    0.0000000000000000
    -3.4286147573675598    5.9385355797482422    0.0000000000000000
     0.0000000000000000    0.0000000000000000   25.5989031884449574
 Sn  La  Sn  La  Sn  La  H  
   3   1   3   1   3   1   1
Cartesian
  0.0000000000000000  0.0000000000000000  9.9999992388618804
 -1.7143073786837799  2.9692677898741211  9.9999992388618804
  1.7143073786837799  2.9692677898741211  9.9999992388618804
  3.4286147573675598  0.0000000000000000  9.9999992388618804
  3.4286147607961750  1.9795118579365689 12.7994515942224787
  1.7143073821123949  4.9487796478106905 12.7994515942224787
 -1.7143073752551654  4.9487796478106905 12.7994515942224787
  0.0000000034286145  1.9795118579365689 12.7994515942224787
  0.1043354111003616  3.9197397507292937 15.6573152452905351
  1.7324790574695166  1.0998413986608169 15.6572605660333242
  5.0212619140103119  0.9194134672813745 15.6609280696953252
  3.5107832414783262  4.0063488026270235 15.4684398306535513
 -1.4686561931471980  5.0917673155565204 16.4632864214196424
