Ti Zn Ti Zn Ti Zn  H 
 1.0000000000000000
     5.6927985971382862    0.0000000000000000    0.0000000000000000
    -2.8463987985691785    4.9301076511115607    0.0000000000000000
     0.0000000000000000    0.0000000000000000   24.6481492557268638
 Ti  Zn  Ti  Zn  Ti  Zn  H  
   3   1   3   1   3   1   1
Cartesian
  0.0000000000000000  0.0000000000000000  9.9999992923310419
 -1.4231995992845752  2.4650540255557662  9.9999992923310419
  1.4231995992845752  2.4650540255557662  9.9999992923310419
  2.8463991985691504  0.0000000000000000  9.9999992923310419
  2.8463991985691504  1.6433693837038419 12.3240745278634396
  1.4231995992845752  4.1084234092596086 12.3240745278634396
 -1.4231995992845752  4.1084234092596086 12.3240745278634396
  0.0000000000000000  1.6433693837038419 12.3240745278634396
  0.0001787999873469  3.2564430695516164 14.5826032680343616
  1.3964557011771579  0.8377988407115725 14.5827664680228111
  4.2962530959674838  0.8374840407338500 14.5827952680207744
  2.8452121986531504  3.2869881673900343 14.5642252693349157
  2.8462319985809827  3.2869824673904375 16.1814891548861617
