Au Ti Au Ti Au Ti Au Ti Au Ti Au  H 
 1.0000000000000000
     5.7679505918200125    0.0000000000000000    0.0000000000000000
     2.7879208027074851    5.0494306426674429    0.0000000000000000
     0.0000000000000000    0.0000000000000000   24.7332452497048862
 Au  Ti  Au  Ti  Au  Ti  Au  Ti  Au  Ti  Au  H  
   1   1   1   1   1   2   1   1   1   1   1   1
Cartesian
  4.1818815817435047  0.7659871763839535  9.9999992985488024
  1.2979062858334987  0.7659871763839535  9.9999992985488024
  2.6918666871872414  3.2907024977176751  9.9999992985488024
  5.5758419830972477  3.2907024977176751  9.9999992985488024
  5.6718962874586296  1.6453512488588375 12.3666226248524431
  7.0658566888123726  4.1700665701925583 12.3666226248524431
  2.7879209915486238  1.6453512488588375 12.3666226248524431
  4.1818813929023664  4.1700665701925583 12.3666226248524431
  0.0463997034454748  0.1134615043507790 14.6982653514007477
  2.9165967911706971 -0.0017226940546363 14.7185104525009507
  4.4062607130709717  2.4922431448404478 14.6857502798379080
  7.4050864936508365  2.6438135556052162 14.7280128663929073
  5.3068504020176075  1.4221950851201257 15.9189207522252882
