Ti  V Ti  V Ti  V  H 
 1.0000000000000000
     5.7120895957731221    0.0000000000000000    0.0000000000000000
    -2.8560447978865611    4.9468146499292587    0.0000000000000000
     0.0000000000000000    0.0000000000000000   24.6639002546122192
 Ti  V   Ti  V   Ti  V   H  
   3   1   3   1   3   1   1
Cartesian
  0.0000000000000000  0.0000000000000000  9.9999992978838410
 -1.4280223989432805  2.4734073249646293  9.9999992978838410
  1.4280223989432805  2.4734073249646293  9.9999992978838410
  2.8560447978865611  0.0000000000000000  9.9999992978838410
  2.8560448007426058  1.6489382149941481 12.3319501273061096
  1.4280224017993253  4.1223455399587774 12.3319501273061096
 -1.4280223960872358  4.1223455399587774 12.3319501273061096
  0.0000000028560447  1.6489382149941481 12.3319501273061096
 -0.0310961873526692  3.2534954788450685 14.6109786640599477
  1.3983397509863844  0.7860785930702493 14.6160112589152007
  4.3288148013569270  0.8414065581185206 14.5493873310827233
  2.8929800231702245  3.3011865267027054 14.4937839738010137
 -1.5282829747673352  4.0389087550257896 15.6536522738464541
