Ti Ni Ti Ni Ti Ni  H 
 1.0000000000000000
     5.5858156047091416    0.0000000000000000    0.0000000000000000
    -2.7929078023545708    4.8374586576680434    0.0000000000000000
     0.0000000000000000    0.0000000000000000   24.5607982619084275
 Ti  Ni  Ti  Ni  Ti  Ni  H  
   3   1   3   1   3   1   1
Cartesian
  0.0000000000000000  0.0000000000000000  9.9999993544622381
 -1.3964539011772854  2.4187293288340217  9.9999993544622381
  1.3964539011772854  2.4187293288340217  9.9999993544622381
  0.0000000000000000  4.8374586576680434  9.9999993544622381
  2.7929078051474785  1.6124862176101951 12.2803991309542138
  1.3964539039701931  4.0312155464442165 12.2803991309542138
 -1.3964538983843775  4.0312155464442165 12.2803991309542138
  0.0000000027929078  1.6124862176101951 12.2803991309542138
 -0.0883984672906224  3.1217340096135722 14.5144856171564367
  1.2628992341225913  0.7812711386040848 14.5145325528419171
  4.1053263866327674  0.7576607122606716 14.5737537215366171
  2.7070662868435287  3.1755198548440586 14.3256148468998354
 -0.1363977271024552  4.7586408456555427 15.6685898153928598
