Ta Cr Ta Cr Ta Cr Ta Cr  H 
 1.0000000000000000
     5.3742096196838407    0.0000000000000000    0.0000000000000000
     1.7914558732242198    5.0668356414357447    0.0000000000000000
     0.0000000000000000    0.0000000000000000   24.3880392741340444
 Ta  Cr  Ta  Cr  Ta  Cr  Ta  Cr  H  
   1   1   1   2   2   2   2   1   1
Cartesian
  2.6871838542979725  0.0000558922639607  9.9999994597577118
  0.0000790444560523  0.0000558922639607  9.9999994597577118
  0.8958069810681621  2.5334737129818330  9.9999994597577118
  3.5829117909100825  2.5334737129818330  9.9999994597577118
  1.7914558918722086  1.2667368539574988 12.1940196370670222
  4.4785607017141285  1.2667368539574988 12.1940196370670222
  2.6871838284843186  3.8001546746753712 12.1940196370670222
  5.3742886383262389  3.8001546746753712 12.1940196370670222
 -0.0276242674872442 -0.0195346679983201 14.2989137004609699
  2.7014381919097672 -0.0202059274509331 14.3677317721325650
  0.8814539776165818  2.5536657471694375 14.3677315770282501
  3.6105066934987144  2.5529874802831323 14.2988951655511229
  1.7914107069769081  1.2667048923582724 15.5505065834434468
