Ta Re Ta Re Ta Re  H 
 1.0000000000000000
     5.8650105849513778    0.0000000000000000    0.0000000000000000
    -2.9325057924756535    5.0792486405573154    0.0000000000000000
     0.0000000000000000    0.0000000000000000   24.7887602457762597
 Ta  Re  Ta  Re  Ta  Re  H  
   3   1   3   1   3   1   1
Cartesian
  0.0000000000000000  0.0000000000000000  9.9999994878931808
 -1.4662528962378267  2.5396243202786577  9.9999994878931808
  1.4662523962378622  2.5396243202786577  9.9999994878931808
  2.9325052924756889  0.0000000000000000  9.9999994878931808
  2.9325051287415396  1.6930828784926890 12.3943801228881298
  1.4662522325037126  4.2327071987713465 12.3943801228881298
 -1.4662530599719763  4.2327071987713465 12.3943801228881298
 -0.0000001637341495  1.6930828784926890 12.3943801228881298
 -0.3535384721516581  3.6105771407394753 14.8164360205269148
  1.0740204124376171  1.0730104190058591 14.7155525832356719
  4.0276567840712074  1.0405405398668059 14.8164344340462577
  2.5701622532670805  3.5953830204843773 14.6075026657798563
 -0.3565262274356910  1.8989366635419116 15.9238815938114051
