Ti Cu Ti Cu Ti Cu  H 
 1.0000000000000000
     5.6369126010931652    0.0000000000000000    0.0000000000000000
    -2.8184568005465471    4.8817096545365368    0.0000000000000000
     0.0000000000000000    0.0000000000000000   24.6025192589559580
 Ti  Cu  Ti  Cu  Ti  Cu  H  
   3   1   3   1   3   1   1
Cartesian
  0.0000000000000000  0.0000000000000000  9.9999994914893264
 -1.4092284002732736  2.4408548272682684  9.9999994914893264
  1.4092279002733090  2.4408548272682684  9.9999994914893264
 -0.0000004999999645  4.8817096545365368  9.9999994914893264
  2.8184561366983840  1.6272365498849424 12.3012596294779790
  1.4092277364251102  4.0680913771532108 12.3012596294779790
 -1.4092285641214721  4.0680913771532108 12.3012596294779790
 -0.0000001638481985  1.6272365498849424 12.3012596294779790
  0.0907185948024953  3.2147719076833052 14.5144359828267717
  1.3287937630276527  0.6225890653499614 14.6226494749167504
  4.2105552086649833  0.9975567573263798 14.5931639952503946
  2.7566853205748729  3.2531031358261129 14.5173821099055136
 -1.5221629484850996  3.2857435451111119 15.6122437418003219
