Ti Cu Ti Cu Ti Cu  H 
 1.0000000000000000
     5.6369126010931652    0.0000000000000000    0.0000000000000000
    -2.8184568005465471    4.8817096545365368    0.0000000000000000
     0.0000000000000000    0.0000000000000000   24.6025192589559580
 Ti  Cu  Ti  Cu  Ti  Cu  H  
   3   1   3   1   3   1   1
Cartesian
  0.0000000000000000  0.0000000000000000  9.9999994914893264
 -1.4092284002732736  2.4408548272682684  9.9999994914893264
  1.4092279002733090  2.4408548272682684  9.9999994914893264
 -0.0000004999999645  4.8817096545365368  9.9999994914893264
  2.8184561366983840  1.6272365498849424 12.3012596294779790
  1.4092277364251102  4.0680913771532108 12.3012596294779790
 -1.4092285641214721  4.0680913771532108 12.3012596294779790
 -0.0000001638481985  1.6272365498849424 12.3012596294779790
 -0.0062504241314159  3.2316532794957227 14.5679622324298474
  1.3867088739165176  0.8192062727906809 14.5678060310350723
  4.2427287846617219  0.8221312028290026 14.5580698054610149
  2.8152632144755745  3.2525548514879730 14.4639419937223650
 -0.0030616167271220  4.8797032962770706 15.7040319769700414
