Hf Zr Hf Zr Hf Zr  H 
 1.0000000000000000
     6.3545195503103455    0.0000000000000000    0.0000000000000000
    -3.1772597751551728    5.5031756105573173    0.0000000000000000
     0.0000000000000000    0.0000000000000000   25.1884422174920104
 Hf  Zr  Hf  Zr  Hf  Zr  H  
   3   1   3   1   3   1   1
Cartesian
  0.0000000000000000  0.0000000000000000  9.9999994157463856
 -1.5886298875775864  2.7515878052786586  9.9999994157463856
  1.5886298875775864  2.7515878052786586  9.9999994157463856
  3.1772597751551728  0.0000000000000000  9.9999994157463856
  3.1772597783324326  1.8343918683513807 12.5942211087460052
  1.5886298907548460  4.5859796736300389 12.5942211087460052
 -1.5886298844003268  4.5859796736300389 12.5942211087460052
  0.0000000031772598  1.8343918683513807 12.5942211087460052
  0.0002604304519900  3.6670889512258560 15.0656236804202681
  1.5977011771120591  0.9110501665070272 15.0552056399653473
  4.7668118274326403  0.9174915234956723 15.0661241747671291
  3.1215110540696971  3.7008288273401972 15.0788997022829570
 -0.7939782305068612  2.2924142899453774 16.3360996635966877
