Zr Cu Zr Cu Zr Cu  H 
 1.0000000000000000
     6.1149475672641120    0.0000000000000000    0.0000000000000000
    -3.0574737836320560    5.2956996252397497    0.0000000000000000
     0.0000000000000000    0.0000000000000000   24.9928322313347202
 Zr  Cu  Zr  Cu  Zr  Cu  H  
   3   1   3   1   3   1   1
Cartesian
  0.0000000000000000  0.0000000000000000  9.9999993204625000
 -1.5287368918160280  2.6478498126198748  9.9999993204625000
  1.5287368918160280  2.6478498126198748  9.9999993204625000
  3.0574737836320560  0.0000000000000000  9.9999993204625000
  3.0574737866895298  1.7652332066480168 12.4964161156673601
  1.5287368948735018  4.4130830192678916 12.4964161156673601
 -1.5287368887585542  4.4130830192678916 12.4964161156673601
  0.0000000030574738  1.7652332066480168 12.4964161156673601
 -0.1387301792979012  3.7136332722831824 15.0366700886776581
  1.4955279415793128  1.0222319754615112 15.0042111226810260
  4.6966230584474760  1.0028919745161431 14.8724511605123304
  2.9665849545125749  3.6120675681492722 14.7622106017299544
 -0.8402641359839551  5.0639958521709074 16.4355856395275239
