Cu Nb Cu Nb Cu Nb  H 
 1.0000000000000000
     5.4503486142957200    0.0000000000000000    0.0000000000000000
    -2.7251748071478250    4.7201406659702734    0.0000000000000000
     0.0000000000000000    0.0000000000000000   24.4501902697358133
 Cu  Nb  Cu  Nb  Cu  Nb  H  
   3   1   3   1   3   1   1
Cartesian
  0.0000000000000000  0.0000000000000000  9.9999992923310419
 -1.3625872035739264  2.3600703329851367  9.9999992923310419
  1.3625872035739264  2.3600703329851367  9.9999992923310419
  2.7251745071478464  0.0000000000000000  9.9999992923310419
  2.7251745071478464  1.5733801886567602 12.2250949348679203
  1.3625872035739264  3.9334506216418901 12.2250949348679203
 -1.3625872035739264  3.9334506216418901 12.2250949348679203
  0.0000000000000000  1.5733801886567602 12.2250949348679203
 -0.0004902999653030  3.1984688736542708 14.3338901856350152
  1.4011155008473983  0.7594893462532928 14.3391267852644368
  4.0495844134234611  0.7602475461996373 14.3393632852476998
  2.7245230071939508  3.1381542779225478 14.3518789843620027
  2.7251191071517664  0.0052320996297405 15.2765855189233886
