Hf Pd Hf Pd Hf Pd Hf Pd Hf Pd  H 
 1.0000000000000000
     5.7754065912923753    0.0000000000000000    0.0000000000000000
     2.0709048534484817    5.3913526184706839    0.0000000000000000
     0.0000000000000000    0.0000000000000000   24.7526232483335633
 Hf  Pd  Hf  Pd  Hf  Pd  Hf  Pd  Hf  Pd  H  
   1   1   1   1   1   1   1   2   2   1   1
Cartesian
  3.1063565979103873  0.1502409204632697  9.9999994206786571
  0.2186533022641995  0.1502409204632697  9.9999994206786571
  1.2541057289884403  2.8459172296986117  9.9999994206786571
  4.1418090246346280  2.8459172296986117  9.9999994206786571
  4.9586078079635012  1.4229586148493059 12.3763116241667817
  2.0709045123173140  1.4229586148493059 12.3763116241667817
  3.1063569390415551  4.1186349240846480 12.3763116241667817
  5.9940602346877423  4.1186349240846480 12.3763116241667817
  0.1634438509013682  0.0072250325143018 14.6703696724747772
  3.0605615792748453  0.1192409232573994 14.7285910106906339
  1.0931251641475439  2.7347869494933872 14.7276172919972907
  3.9880787238104469  2.8452792332037999 14.6703683605857478
  5.0026578532209234  1.4531875030642141 15.5577142602610259
