Hf  W Hf  W Hf  W  H 
 1.0000000000000000
     6.1466485650207305    0.0000000000000000    0.0000000000000000
    -3.0733247825103303    5.3231536232969150    0.0000000000000000
     0.0000000000000000    0.0000000000000000   25.0187162295029886
 Hf  W   Hf  W   Hf  W   H  
   3   1   3   1   3   1   1
Cartesian
  0.0000000000000000  0.0000000000000000  9.9999992406700571
 -1.5366623912551651  2.6615768116484575  9.9999992406700571
  1.5366618912552001  2.6615768116484575  9.9999992406700571
  3.0733242825103653  0.0000000000000000  9.9999992406700571
  3.0733241189170344  1.7743845393245872 12.5093581147514943
  1.5366617276618690  4.4359613509730451 12.5093581147514943
 -1.5366625548484960  4.4359613509730451 12.5093581147514943
 -0.0000001635933307  1.7743845393245872 12.5093581147514943
  0.0240932857060656  3.5015617234327685 14.9924694783558170
  1.5242119605123483  0.8794691376274346 15.0100218090635167
  4.6703705745594970  0.9073150173452661 14.9276379285785481
  3.0901762324369959  3.5325589952660499 14.7972472096999077
 -1.7306284104332676  4.2795337905483608 15.9747365516700395
