Tc Zr Tc Zr Tc Zr Tc Zr  H 
 1.0000000000000000
     5.7036065963734375    0.0000000000000000    0.0000000000000000
     1.9023768653746851    5.3769966194866141    0.0000000000000000
     0.0000000000000000    0.0000000000000000   24.6573332550769422
 Tc  Zr  Tc  Zr  Tc  Zr  Tc  Zr  H  
   1   2   1   2   2   1   2   1   1
Cartesian
  2.8535652166496490  0.0012455758899075  9.9999994231077611
  3.8047536493369911  2.6897438856332143  9.9999994231077611
  0.0017619184629305  0.0012455758899075  9.9999994231077611
  0.9529503511502729  2.6897438856332143  9.9999994231077611
  5.7053685517395660  4.0333702498714157 12.3286666275384711
  1.9023768208655039  1.3448719401281088 12.3286666275384711
  4.7541801190522230  1.3448719401281088 12.3286666275384711
  2.8535652535528468  4.0333702498714157 12.3286666275384711
  0.0411785247239164 -0.0053766309837165 14.6417332605053598
  2.9006399070574722  0.0065802394150089 14.5288769667422049
  0.9728503314982260  2.6848528458372072 14.5607854545889346
  3.8287276949474776  2.6781255939576250 14.6465094106142022
  2.1173502932872208  3.4829908340985054 15.7582221924472261
