Zn  V Zn  V Zn  V Zn  V Zn  H 
 1.0000000000000000
     5.5120656099281993    0.0000000000000000    0.0000000000000000
     2.4081858295801526    4.5550846776507745    0.0000000000000000
     0.0000000000000000    0.0000000000000000   24.3735392751601623
 Zn  V   Zn  V   Zn  V   Zn  V   Zn  H  
   1   1   1   1   1   2   2   2   1   1
Cartesian
  0.8562462212699027  1.0043806385832450  9.9999994336399656
  4.8163719410240784  3.2819229774086320  9.9999994336399656
  2.0603391360599788  3.2819229774086320  9.9999994336399656
  3.6122790262340025  1.0043806385832450  9.9999994336399656
  5.1642187782321720  1.6409614887043160 12.1867696375800811
  2.4081859732680719  1.6409614887043160 12.1867696375800811
  3.6122788880581487  3.9185038275297033 12.1867696375800811
  6.3683116930222479  3.9185038275297033 12.1867696375800811
  2.7413916537780127  0.0092206802646660 14.4821914736948258
  0.0402027817988397 -0.0610987127516485 14.2700103573713193
  1.2726675761764661  2.2806919749011723 14.2772389154083115
  3.9931965461433023  2.2679994637562171 14.4931533267425969
  6.8567655311178282  3.6653845772891582 15.4296423003675578
