Nb Sn Nb Sn Nb Sn  H 
 1.0000000000000000
     5.9843895765032968    0.0000000000000000    0.0000000000000000
    -2.9921947882516484    5.1826336332410801    0.0000000000000000
     0.0000000000000000    0.0000000000000000   24.8862322388784740
 Nb  Sn  Nb  Sn  Nb  Sn  H  
   3   1   3   1   3   1   1
Cartesian
  0.0000000000000000  0.0000000000000000  9.9999992625538283
 -1.4960973941258242  2.5913168166205400  9.9999992625538283
  1.4960973941258242  2.5913168166205400  9.9999992625538283
  2.9921947882516484  0.0000000000000000  9.9999992625538283
  2.9921947912438434  1.7275445426861489 12.4431161194392370
  1.4960973971180191  4.3188613593066885 12.4431161194392370
 -1.4960973911336293  4.3188613593066885 12.4431161194392370
  0.0000000029921947  1.7275445426861489 12.4431161194392370
 -0.0118616496030031  3.4917542541093312 14.7751408853827577
  1.5170531285907218  0.8516736593013707 14.7729461187891467
  4.4505992263557514  0.8557052455525698 14.7751360325674685
  2.9766184514990170  3.4640758964755451 15.1942394951863999
 -0.0081012088028675  1.7322066015014652 15.8184840772888684
