Nb In Nb In Nb In  H 
 1.0000000000000000
     5.9817905766872199    0.0000000000000000    0.0000000000000000
    -2.9908947883436454    5.1803826334003764    0.0000000000000000
     0.0000000000000000    0.0000000000000000   24.8841102390286366
 Nb  In  Nb  In  Nb  In  H  
   3   1   3   1   3   1   1
Cartesian
  0.0000000000000000  0.0000000000000000  9.9999994603702298
 -1.4954473941718227  2.5901913167001882  9.9999994603702298
  1.4954478941717873  2.5901913167001882  9.9999994603702298
  2.9908952883436100  0.0000000000000000  9.9999994603702298
  2.9908954580011602  1.7267942094066646 12.4420551195143183
  1.4954480638293375  4.3169855261068530 12.4420551195143183
 -1.4954472245142727  4.3169855261068530 12.4420551195143183
  0.0000001696575499  1.7267942094066646 12.4420551195143183
 -0.0000118214899483  3.4863915289365117 14.7474340815313472
  1.5205860275271885  0.8488449410614823 14.7500286232854183
  4.4578815679604080  0.8469390938318022 14.7474191012969804
  2.9930731099662919  3.4522885831048691 15.2598453653511701
 -0.0033932371422551  1.7287166338607716 15.8120974036374147
