Zn Nb Zn Nb Zn Nb Zn Nb Zn  H 
 1.0000000000000000
     5.6785125981492621    0.0000000000000000    0.0000000000000000
     2.8147018008122768    4.9318306509896290    0.0000000000000000
     0.0000000000000000    0.0000000000000000   24.6430082560906811
 Zn  Nb  Zn  Nb  Zn  Nb  Zn  Nb  Zn  H  
   1   2   2   2   1   1   1   1   1   1
Cartesian
  1.3827968235426493  0.8029609801528830  9.9999993084318906
  4.2220531226172806  0.8029609801528830  9.9999993084318906
  2.7901477239487877  3.2688763056476970  9.9999993084318906
  5.6294040230234188  3.2688763056476970  9.9999993084318906
  2.8147020072651023  1.6344381503579333 12.3215041280453406
  5.6539583063397334  1.6344381503579333 12.3215041280453406
  4.2220529076712410  4.1003534758527476 12.3215041280453406
  7.0613092067458716  4.1003534758527476 12.3215041280453406
  2.7687525029201350  0.0031016776147139 14.5896854453169382
 -0.0940835766827509 -0.0545873313543247 14.6960567440242702
  7.0537543755849441  2.4032018019813619 14.5896368246616497
  4.2268834111691627  2.4544505996221284 14.7030273392686137
  2.1711830337610722  1.2607671855810865 15.9350400962290308
