Pt Ti Pt Ti Pt Ti Pt  H 
 1.0000000000000000
     5.6013266036114766    0.0000000000000000    0.0000000000000000
     2.8006638018057024    4.8508916567174314    0.0000000000000000
     0.0000000000000000    0.0000000000000000   24.5734632610121615
 Pt  Ti  Pt  Ti  Pt  Ti  Pt  H  
   1   1   3   1   3   1   2   1
Cartesian
  0.0000000000000000  0.0000000000000000  9.9999994250157282
  1.4003319009028512  2.4254458283587157  9.9999994250157282
  2.8006633018057383  0.0000000000000000  9.9999994250157282
  4.2009952027085893  2.4254458283587157  9.9999994250157282
  5.6013269397454497  3.2339277727619180 12.2867316305060807
  4.2009950388425983  0.8084819444032024 12.2867316305060807
  2.8006636379397110  3.2339277727619180 12.2867316305060807
  1.4003317370368598  0.8084819444032024 12.2867316305060807
  2.8560707572801403  1.5848404790076069 14.6079278479119079
  4.2008063274279683  4.0426516068775831 14.4649662455086645
  5.5460192653144560  1.5851522021563593 14.6077896959014542
  7.0014567135065349  4.1060362969045965 14.6079594493856622
  1.4001481773746487  2.4252944417318929 15.3781056474190621
