Nb Tl Nb Tl Nb Tl Nb  H 
 1.0000000000000000
     6.0662105707130785    0.0000000000000000    0.0000000000000000
    -3.0331057853565038    5.4614346135111980    0.0000000000000000
     0.0000000000000000    0.0000000000000000   25.0446882276650307
 Nb  Tl  Nb  Tl  Nb  Tl  Nb  H  
   1   2   2   2   2   2   1   1
Cartesian
  0.0000000000000000  0.0000000000000000  9.9999992441285048
 -1.5165528926782519  2.7307173067555990  9.9999992441285048
  1.5165523926782873  2.7307173067555990  9.9999992441285048
  3.0331052853565392  0.0000000000000000  9.9999992441285048
  3.0331051281066959  1.6844893874049716 12.5223441138325153
  1.5165522354284438  4.4152066941605703 12.5223441138325153
 -1.5165530499280959  4.4152066941605703 12.5223441138325153
 -0.0000001572498439  1.6844893874049716 12.5223441138325153
 -0.0010670783327902  3.0650450888141081 14.7902711657626273
  1.5163560248447367  0.4286886088072907 15.4114133944059564
  4.5494786534907723  0.4287598805289971 15.4118832077124175
  3.0328141288449606  3.1102634026127931 14.9421083698907680
  3.0319249759346683  2.6256420518932542 16.6784956243390425
