 V Tl  V Tl  V Tl  H 
 1.0000000000000000
     5.6291746016407593    0.0000000000000000    0.0000000000000000
    -2.8145868008204151    4.8750076550108172    0.0000000000000000
     0.0000000000000000    0.0000000000000000   24.5962002594031368
 V   Tl  V   Tl  V   Tl  H  
   3   1   3   1   3   1   1
Cartesian
  0.0000000000000000  0.0000000000000000  9.9999992924917134
 -1.4072934004102076  2.4375038275054086  9.9999992924917134
  1.4072939004101721  2.4375038275054086  9.9999992924917134
  2.8145873008203797  0.0000000000000000  9.9999992924917134
  2.8145874703016212  1.6250025500452698 12.2981001297015684
  1.4072940698914138  4.0625063775506787 12.2981001297015684
 -1.4072932309289659  4.0625063775506787 12.2981001297015684
  0.0000001694812418  1.6250025500452698 12.2981001297015684
 -0.0047899695762479  3.3953537994502310 14.4076175213989348
  1.5220312705003740  0.7463448788276460 14.4113197906543817
  4.0936648926382917  0.7440429879630878 14.4076949502373530
  2.8088074798061911  3.2533799021398431 15.0873491341547066
 -0.0068826669225390  1.6290492158995720 15.2369787902379699
