 V Ag  V Ag  V Ag  V Ag  V Ag  H 
 1.0000000000000000
     5.8184625882454357    0.0000000000000000    0.0000000000000000
     2.4564308261660033    4.7488156639410324    0.0000000000000000
     0.0000000000000000    0.0000000000000000   24.5756632608564765
 V   Ag  V   Ag  V   Ag  V   Ag  V   Ag  H  
   1   2   2   1   1   1   1   1   1   1   1
Cartesian
  3.6846459541264727  1.1037642900017337  9.9999991132824189
  0.7754146600037546  1.1037642900017337  9.9999991132824189
  2.0036300730867564  3.4781721219722499  9.9999991132824189
  4.9128613672094739  3.4781721219722499  9.9999991132824189
  2.4564306865139685  1.7390860609861249 12.2878316304282382
  5.3656619806366868  1.7390860609861249 12.2878316304282382
  3.6846460995969705  4.1134938929566411 12.2878316304282382
  6.5938773937196888  4.1134938929566411 12.2878316304282382
  0.1100675218403656 -0.1509651253879939 14.3154722864549910
  2.8939405857997178  0.0068903748174615 14.6710950606384625
  1.4230404848101443  2.3819782039493447 14.3236447266670854
  4.2891055187615379  2.2890287041911566 14.8001769624683543
  8.2450384623097914  3.2767799261484556 15.5649399251162670
