Ta Cu Ta Cu Ta Cu  H 
 1.0000000000000000
     5.7619695922432692    0.0000000000000000    0.0000000000000000
    -2.8809847961216346    4.9900116468723406    0.0000000000000000
     0.0000000000000000    0.0000000000000000   24.7046272517300949
 Ta  Cu  Ta  Cu  Ta  Cu  H  
   3   1   3   1   3   1   1
Cartesian
  0.0000000000000000  0.0000000000000000  9.9999994464735664
 -1.4404923980608173  2.4950058234361703  9.9999994464735664
  1.4404923980608173  2.4950058234361703  9.9999994464735664
  2.8809847961216346  0.0000000000000000  9.9999994464735664
  2.8809847990026194  1.6633372139607763 12.3523136258650474
  1.4404924009418019  4.1583430373969463 12.3523136258650474
 -1.4404923951798327  4.1583430373969463 12.3523136258650474
  0.0000000028809847  1.6633372139607763 12.3523136258650474
 -0.0001446600085830  3.4281582808086308 14.6627244588324537
  1.4312116656632108  0.8726661659252120 14.6927010782443297
  4.4311437012292139  0.9644389321962538 14.5926504259532290
  2.8617041021150245  3.3234745679829607 14.6505209164718995
 -0.4855565564387274  4.7758008161163135 16.0318249838197318
