Re Ta Re Ta Re Ta Re  H 
 1.0000000000000000
     5.5307496086059915    0.0000000000000000    0.0000000000000000
     1.7983068727393960    5.2302276298730002    0.0000000000000000
     0.0000000000000000    0.0000000000000000   24.5011792661274761
 Re  Ta  Re  Ta  Re  Ta  Re  H  
   1   2   2   2   2   2   1   1
Cartesian
  3.5966136194079281  2.5666479681367860  9.9999994364190883
  6.3619884237109243  2.5666479681367860  9.9999994364190883
  4.4957670557776259  5.1817617830732861  9.9999994364190883
  7.2611418600806221  5.1817617830732861  9.9999994364190883
  1.7983068060394358  1.2833239814532791 12.2505896330637380
  4.5636816103424316  1.2833239814532791 12.2505896330637380
  2.6974602424091341  3.8984377963897794 12.2505896330637380
  5.4628350467121303  3.8984377963897794 12.2505896330637380
 -0.0140786308293629 -0.0536328566682249 14.4262596092236581
  2.7310539730106735 -0.0244617380133226 14.5241986876289140
  6.3937883974948528  2.5893709274350125 14.5250395926025071
  3.6092251950103100  2.6192379174156142 14.4262145025526305
  4.6007272247155111  1.3097605278941786 15.4273693166296013
