Ti Cr Ti Cr Ti Cr Ti  H 
 1.0000000000000000
     5.2609396276996074    0.0000000000000000    0.0000000000000000
     1.7548718758131561    4.9596286490224513    0.0000000000000000
     0.0000000000000000    0.0000000000000000   24.2959122806535852
 Ti  Cr  Ti  Cr  Ti  Cr  Ti  H  
   1   2   2   2   2   2   1   1
Cartesian
  0.0000000000000000  0.0000000000000000  9.9999991428891555
  0.8774359379065780  2.4798143245112256  9.9999991428891555
  2.6304698138498037  0.0000000000000000  9.9999991428891555
  3.5079057517563816  2.4798143245112256  9.9999991428891555
  5.2609398299442613  3.7190719688393341 12.1479561403267926
  4.3835038920376830  1.2392576443281080 12.1479561403267926
  2.6304700160944572  3.7190719688393341 12.1479561403267926
  1.7530340781878793  1.2392576443281080 12.1479561403267926
  3.5115431267284603  2.4568376148067239 14.2736638645424723
  4.3215394895994796  4.9143984377034196 14.1251216452557671
  6.1205052766501815  2.4675088956371920 14.2017080703037752
  6.9954956401451298  4.9708660417054329 14.2737961071930162
  4.9933262204842634  1.6705592416068928 15.3651751439199398
