Tc Ta Tc Ta Tc Ta Tc Ta Tc  H 
 1.0000000000000000
     5.5069246102920122    0.0000000000000000    0.0000000000000000
     1.8060818721891834    5.2023346318469006    0.0000000000000000
     0.0000000000000000    0.0000000000000000   24.4869942671313083
 Tc  Ta  Tc  Ta  Tc  Ta  Tc  Ta  Tc  H  
   1   2   2   1   1   2   1   1   1   1
Cartesian
  3.6121640441569252  2.5696252489104845  9.9999992820119505
  6.3656263493029321  2.5696252489104845  9.9999992820119505
  4.5152049802515171  5.1707925648339348  9.9999992820119505
  7.2686672853975232  5.1707925648339348  9.9999992820119505
  5.4625852633190606  3.8859799403786925 12.2434971335656542
  4.5595443272244687  1.2848126244552422 12.2434971335656542
  1.8060820220784626  1.2848126244552422 12.2434971335656542
  2.7091229581730545  3.8859799403786925 12.2434971335656542
  2.7187362458368645 -0.0247106785168369 14.4781607387366211
 -0.0123216093045569 -0.0334289902002790 14.4201137556255183
  6.3959697613299182  2.5912009069361472 14.4789675362237329
  3.6208815861022301  2.6004965477053585 14.4200940925691210
  4.5853395496777640  1.3031696708768661 15.4084873985245459
