Ta Hg Ta Hg Ta Hg  H 
 1.0000000000000000
     5.9512065788515542    0.0000000000000000    0.0000000000000000
    -2.9756037894257421    5.1538966352747080    0.0000000000000000
     0.0000000000000000    0.0000000000000000   24.8591382407958292
 Ta  Hg  Ta  Hg  Ta  Hg  H  
   3   1   3   1   3   1   1
Cartesian
  0.0000000000000000  0.0000000000000000  9.9999991546195517
  4.4634046841386832  2.5769483176373540  9.9999991546195517
  1.4878013947129061  2.5769483176373540  9.9999991546195517
  2.9756032894257771  0.0000000000000000  9.9999991546195517
  2.9756031257347253  1.7179655433736039 12.4295691203979146
  1.4878012310218542  4.2949138610109578 12.4295691203979146
 -1.4878020584039229  4.2949138610109578 12.4295691203979146
 -0.0000001636910516  1.7179655433736039 12.4295691203979146
 -0.0098338619623242  3.4857053279686570 14.7331180464826961
  1.5239580773162409  0.8381062613976973 14.7378129184717146
  4.4153793294472026  0.8426097981243600 14.7331156351462855
  2.9684793108334082  3.4400430458692117 15.2211991598736489
 -0.0099491890653959  1.7237053762095496 15.7702154901032046
