Nb Ni Nb Ni Nb Ni  H 
 1.0000000000000000
     5.7225115950355896    0.0000000000000000    0.0000000000000000
    -2.8612557975177948    4.9558406492905167    0.0000000000000000
     0.0000000000000000    0.0000000000000000   24.6724102540099928
 Nb  Ni  Nb  Ni  Nb  Ni  H  
   3   1   3   1   3   1   1
Cartesian
  0.0000000000000000  0.0000000000000000  9.9999992923310419
 -1.4306278987588974  2.4779203246452584  9.9999992923310419
  1.4306278987588974  2.4779203246452584  9.9999992923310419
  2.8612558975177875  0.0000000000000000  9.9999992923310419
  2.8612558975177875  1.6519468830968389 12.3362049270050100
  1.4306278987588974  4.1298671077421041 12.3362049270050100
 -1.4306278987588974  4.1298671077421041 12.3362049270050100
  0.0000000000000000  1.6519468830968389 12.3362049270050100
 -0.0002435999827612  3.2419952705740420 14.6101611660841737
  1.3766615025779321  0.8572294393365293 14.6104391660645003
  4.3448142925309581  0.8568925393603707 14.6102260660795800
  2.8621945974513592  3.3045212661492713 14.6169435656042044
  2.8610618975315165  3.3037323662050992 16.1372974580134745
