Nb Pd Nb Pd Nb Pd Nb Pd  H 
 1.0000000000000000
     5.7631005921632319    0.0000000000000000    0.0000000000000000
     2.7713948038769791    4.9257516514198221    0.0000000000000000
     0.0000000000000000    0.0000000000000000   24.6724352540082208
 Nb  Pd  Nb  Pd  Nb  Pd  Nb  Pd  H  
   1   2   1   1   2   2   2   1   1
Cartesian
  4.1570921900645050  0.9035949163304923  9.9999990921593884
  1.2755418939828895  0.9035949163304923  9.9999990921593884
  2.6612392959213791  3.3664707420404034  9.9999990921593884
  5.5427895920029950  3.3664707420404034  9.9999990921593884
  5.6529450920831135  1.6832353710202017 12.3362176270041104
  2.7713947960014975  1.6832353710202017 12.3362176270041104
  4.1570921979399866  4.1461111967301125 12.3362176270041104
  7.0386424940216035  4.1461111967301125 12.3362176270041104
  2.8160958309195228  0.0177291150721575 14.7061507978990793
 -0.0289071465375278  0.0162642113082802 14.5561798936562958
  1.3625367256695589  2.4759067834857023 14.5485381002850716
  4.2181163390252934  2.5096164604572930 14.7061511679856096
  3.5672907936805545  1.2354374015370839 15.7788460588616477
