Nb Cr Nb Cr Nb Cr Nb  H 
 1.0000000000000000
     5.3726686197928926    0.0000000000000000    0.0000000000000000
     1.7891818733851439    5.0660036414946230    0.0000000000000000
     0.0000000000000000    0.0000000000000000   24.3862392742614240
 Nb  Cr  Nb  Cr  Nb  Cr  Nb  H  
   1   2   3   2   1   2   1   1
Cartesian
  6.2646976622981478  2.5311896403206977  9.9999991012604283
  7.1592885989907202  5.0641914610680097  9.9999991012604283
  3.5783633524017016  2.5311896403206977  9.9999991012604283
  4.4729542890942735  5.0641914610680097  9.9999991012604283
  4.4755159860972968  1.2655948201603489 12.1931196371307120
  2.6837726128934225  3.7985966409076606 12.1931196371307120
  5.3701069227898692  3.7985966409076606 12.1931196371307120
  1.7891816762008508  1.2655948201603489 12.1931196371307120
  2.6977222776061751 -0.0188082528255622 14.4020168992719579
  3.6244061620870363  2.5637590790519398 14.2740712515497226
 -0.0460389407940208 -0.0325658165386381 14.2736872170536309
  0.8806478527569906  2.5500048538352633 14.4020183624463165
  1.7912470460301169  1.2670570410554081 15.5879771691590214
