Nb Mo Nb Mo Nb Mo Nb Mo  H 
 1.0000000000000000
     6.1236255666499968    0.0000000000000000    0.0000000000000000
     2.3500928336912139    4.8227836587065473    0.0000000000000000
     0.0000000000000000    0.0000000000000000   24.6848482531297932
 Nb  Mo  Nb  Mo  Nb  Mo  Nb  Mo  H  
   1   1   1   2   2   2   2   1   1
Cartesian
  3.5251392640673851  1.2662157053670229  9.9999993412443384
  6.5869520473923835  1.2662157053670229  9.9999993412443384
  4.7001856809129920  3.6776075347202966  9.9999993412443384
  7.7619984642379904  3.6776075347202966  9.9999993412443384
  5.4119056237814940  1.8388037673601483 12.3424241265648966
  2.3500928404564960  1.8388037673601483 12.3424241265648966
  3.5251392573021025  4.2501955967134215 12.3424241265648966
  6.5869520406271009  4.2501955967134215 12.3424241265648966
  3.0694344332288335 -0.0702688838818169 14.6019746930088559
 -0.0484572102864064  0.0390725100513436 14.6981103529124830
  1.1492019327661691  2.4168846519912517 14.7097391874457450
  4.2954362920842719  2.5075812077049053 14.6435359548914441
  2.8145192117240652  2.4220201497651721 15.8277135950845640
