Nb  W Nb  W Nb  W  H 
 1.0000000000000000
     5.9133665815293739    0.0000000000000000    0.0000000000000000
    -2.9566837907646515    5.1211256375938099    0.0000000000000000
     0.0000000000000000    0.0000000000000000   24.8282422429822454
 Nb  W   Nb  W   Nb  W   H  
   3   1   3   1   3   1   1
Cartesian
  0.0000000000000000  0.0000000000000000  9.9999991759599389
 -1.4783418953823257  2.5605628187969049  9.9999991759599389
  1.4783413953823612  2.5605628187969049  9.9999991759599389
  2.9566832907646869  0.0000000000000000  9.9999991759599389
  2.9566831270547151  1.7070418774908949 12.4141211214911227
  1.4783412316723896  4.2676046962877994 12.4141211214911227
 -1.4783420590922973  4.2676046962877994 12.4141211214911227
 -0.0000001637099715  1.7070418774908949 12.4141211214911227
 -0.4073619696802218  3.6694173640960051 14.8267376065539036
  1.0383770904996177  1.1094837626428147 14.8033269328017845
  4.0116988827133442  1.0811647162780178 14.8263732272707447
  2.5887013365822140  3.6287724955213605 14.6181922644408857
 -0.4332847510449560  1.9584321788951582 15.9587866993512435
