Zr  Y Zr  Y Zr  Y  H 
 1.0000000000000000
     6.5662605353260917    0.0000000000000000    0.0000000000000000
    -3.2831297676630813    5.6865485975805798    0.0000000000000000
     0.0000000000000000    0.0000000000000000   25.3613282052574007
 Zr  Y   Zr  Y   Zr  Y   H  
   3   1   3   1   3   1   1
Cartesian
  0.0000000000000000  0.0000000000000000  9.9999994312647207
 -1.6415648838315406  2.8432742987902899  9.9999994312647207
  1.6415653838315052  2.8432742987902899  9.9999994312647207
  3.2831302676630458  0.0000000000000000  9.9999994312647207
  3.2831304376128307  1.8955161972980106 12.6806641026287004
  1.6415655537812901  4.7387904960883001 12.6806641026287004
 -1.6415647138817557  4.7387904960883001 12.6806641026287004
  0.0000001699497849  1.8955161972980106 12.6806641026287004
 -0.0375697524767817  3.8107476244645411 15.2140830074231950
  1.7650861582961985  0.8763519117232592 15.1436179518779408
  4.8886113046225645  0.9702390240770734 15.2140846305482018
  3.3035178179192668  3.7798212218721758 15.5270388302006719
 -1.4040340489129526  2.7057975679955191 16.4211507568680304
