Cr Rh Cr Rh Cr Rh  H 
 1.0000000000000000
     5.2136986310427060    0.0000000000000000    0.0000000000000000
    -2.6068498155213180    4.5151956804735960    0.0000000000000000
     0.0000000000000000    0.0000000000000000   24.2569662834096746
 Cr  Rh  Cr  Rh  Cr  Rh  H  
   3   1   3   1   3   1   1
Cartesian
  0.0000000000000000  0.0000000000000000  9.9999994560331427
 -1.3034249077606590  2.2575978402367980  9.9999994560331427
  1.3034244077606940  2.2575978402367980  9.9999994560331427
  2.6068493155213530  0.0000000000000000  9.9999994560331427
  2.6068491514615473  1.5050652253194667 12.1284831417048373
  1.3034242437008885  3.7626630655562647 12.1284831417048373
 -1.3034250718204645  3.7626630655562647 12.1284831417048373
 -0.0000001640598056  1.5050652253194667 12.1284831417048373
  0.1251964083221879  3.0018715210967564 14.1522256835901601
  1.3293711670483055  0.6262183631944632 14.0909880989569096
  3.8297027770149419  0.7627682248852888 14.1143175273635730
  2.5967102228347283  2.9890096565916426 14.3199789546352143
 -1.1967919814543608  3.0100141211374218 15.3861840835511412
