 Y Au  Y Au  Y Au  Y Au  H 
 1.0000000000000000
     6.2725665561099042    0.0000000000000000    0.0000000000000000
     2.0962238516567346    5.9119325816308539    0.0000000000000000
     0.0000000000000000    0.0000000000000000   25.1231622221116702
 Y   Au  Y   Au  Y   Au  Y   Au  H  
   1   2   2   1   1   1   2   2   1
Cartesian
  0.0080516383576835  0.0056878880725848  9.9999994731462447
  3.1443349164126357  0.0056878880725848  9.9999994731462447
  1.0561635641860507  2.9616541788880117  9.9999994731462447
  4.1924468422410026  2.9616541788880117  9.9999994731462447
  2.0962234253048964  1.4808270923999720 12.5615811110558351
  5.2325067033598494  1.4808270923999720 12.5615811110558351
  6.2806186291882167  4.4367933832153996 12.5615811110558351
  3.1443353511332637  4.4367933832153996 12.5615811110558351
  4.1284218423237729  2.9164253584194579 15.1204913026336989
  0.0588159701687471  0.0415471644533429 15.1205809923228323
  3.2366628752150248 -0.1402396072265946 14.9591203326644422
  0.9494767296261745  3.0974402977412012 14.9591240508924521
  2.0927408268988494  1.4783674387613173 15.1783647176506094
