La Tl La Tl La Tl  H 
 1.0000000000000000
     7.2469524871556326    0.0000000000000000    0.0000000000000000
    -3.6234767435777804    6.2760445558637770    0.0000000000000000
     0.0000000000000000    0.0000000000000000   25.9171101659264345
 La  Tl  La  Tl  La  Tl  H  
   3   1   3   1   3   1   1
Cartesian
  0.0000000000000000  0.0000000000000000  9.9999992923310419
 -1.8117381717889045  3.1380224779318748  9.9999992923310419
  1.8117381717889045  3.1380224779318748  9.9999992923310419
  3.6234762435778163  0.0000000000000000  9.9999992923310419
  3.6234762435778163  2.0920150519545784 12.9585552829632036
  1.8117381717889045  5.2300375298864532 12.9585552829632036
 -1.8117381717889045  5.2300375298864532 12.9585552829632036
  0.0000000000000000  2.0920150519545784 12.9585552829632036
 -0.0002008999857829  4.0973428100437479 15.9796303691710833
  1.7135069787404216  1.1064796216978663 15.9721033697037456
  5.5335554084074339  1.1060010217317355 15.9717797697266466
  3.6240028435405502  4.1771655043949432 15.7994206819239640
 -0.0000534999962140  2.0929574518878877 17.3480701723308393
