 Y  W  Y  W  Y  W  H 
 1.0000000000000000
     6.6460325296808751    0.0000000000000000    0.0000000000000000
    -3.3230157648404730    5.7556325926917200    0.0000000000000000
     0.0000000000000000    0.0000000000000000   25.4264612006481414
 Y   W   Y   W   Y   W   H  
   3   1   3   1   3   1   1
Cartesian
  0.0000000000000000  0.0000000000000000  9.9999992928431727
 -1.6615078824202365  2.8778162963458600  9.9999992928431727
  1.6615083824202010  2.8778162963458600  9.9999992928431727
  3.3230162648404376  0.0000000000000000  9.9999992928431727
  3.3230164348301088  1.9185441956453626 12.7132306003240707
  1.6615085524098721  4.7963604919912228 12.7132306003240707
 -1.6615077124305657  4.7963604919912228 12.7132306003240707
  0.0000001699896708  1.9185441956453626 12.7132306003240707
 -0.0489559832732369  3.8054796254850785 15.4468722621664138
  1.6096675281110349  0.9326809054532840 15.4468778305614176
  4.9466134754568154  0.9373786585310716 15.4961306403328969
  3.3112262368034759  3.8302834723425900 15.0144734226927596
 -0.0529920019192907  5.7250346368376341 16.6297281203908014
