 V Hf  V Hf  V Hf  V Hf  V Hf  H 
 1.0000000000000000
     5.6914135972362985    0.0000000000000000    0.0000000000000000
     1.9031658653188499    5.3637816204217978    0.0000000000000000
     0.0000000000000000    0.0000000000000000   24.6488502556772602
 V   Hf  V   Hf  V   Hf  V   Hf  V   Hf  H  
   1   1   1   1   1   2   2   1   1   1   1
Cartesian
  0.9606248566976361  2.6882767998774146  9.9999991105678561
  3.8063316553157858  2.6882767998774146  9.9999991105678561
  2.8547487226563608  0.0063859896665153  9.9999991105678561
  0.0090419240382111  0.0063859896665153  9.9999991105678561
  2.8547487603173174  4.0260292101496056 12.3244251278386301
  5.7004555589354666  4.0260292101496056 12.3244251278386301
  1.9031658276578929  1.3441383999387073 12.3244251278386301
  4.7488726262760412  1.3441383999387073 12.3244251278386301
  2.8412895426430729  0.0098770337530749 14.5359494035051995
  0.0065247754877119  0.0047945878424259 14.5903386937696187
  6.6508899097668630  2.6745763767647968 14.5358886440893187
  3.7963740053782535  2.6811039649023094 14.5905683224585996
  1.8965295526664332  1.3393784460342044 15.5431190488801043
