Sn  V Sn  V Sn  V  H 
 1.0000000000000000
     6.3862425480654075    0.0000000000000000    0.0000000000000000
    -3.1931207740327392    5.5306486086131388    0.0000000000000000
     0.0000000000000000    0.0000000000000000   25.2143442156590041
 Sn  V   Sn  V   Sn  V   H  
   3   1   3   1   3   1   1
Cartesian
  0.0000000000000000  0.0000000000000000  9.9999992923310419
 -1.5965605870163553  2.7653241043065835  9.9999992923310419
  1.5965605870163553  2.7653241043065835  9.9999992923310419
  3.1931212740327037  0.0000000000000000  9.9999992923310419
  3.1931212740327037  1.8435494695377175 12.6071719078295175
  1.5965605870163553  4.6088735738443010 12.6071719078295175
 -1.5965605870163553  4.6088735738443010 12.6071719078295175
  0.0000000000000000  1.8435494695377175 12.6071719078295175
  0.0001384999901988  3.6262523433813603 15.3683034124327982
  1.5437048907567892  0.9522739326105251 15.3682100124394072
  4.8427565572931277  0.9522900326093857 15.3681319124449338
  3.1931100740334961  3.6870668390777070 14.7102779589992192
  3.1931230740325760  3.6870963390756191 16.3851736404720434
