Sn Au Sn Au Sn Au  H 
 1.0000000000000000
     6.6331305305939097    0.0000000000000000    0.0000000000000000
    -3.3165647652969903    5.7444595934823983    0.0000000000000000
     0.0000000000000000    0.0000000000000000   25.4159272013936004
 Sn  Au  Sn  Au  Sn  Au  H  
   3   1   3   1   3   1   1
Cartesian
  0.0000000000000000  0.0000000000000000  9.9999994156456946
 -1.6582823826484951  2.8722297967411992  9.9999994156456946
  1.6582828826484597  2.8722297967411992  9.9999994156456946
  3.3165652652969548  0.0000000000000000  9.9999994156456946
  3.3165654352801748  1.9148198625793129 12.7079636006968002
  1.6582830526316794  4.7870496593205125 12.7079636006968002
 -1.6582822126652754  4.7870496593205125 12.7079636006968002
  0.0000001699832199  1.9148198625793129 12.7079636006968002
 -0.0321175387291817  3.9212673195838046 15.6346163864321568
  1.7216659100662441  0.8837948912719548 15.6346507233498055
  5.1658700745416599  1.0676567639888999 15.2678410980152393
  3.4986437739181806  3.9347753416399036 15.0052567765410956
 -0.7934211962284818  5.2863915716409728 16.9707331027013417
