Sn Mo Sn Mo Sn Mo  H 
 1.0000000000000000
     6.3495795506599331    0.0000000000000000    0.0000000000000000
    -3.1747897753299665    5.4988976108600580    0.0000000000000000
     0.0000000000000000    0.0000000000000000   25.1844082177774808
 Sn  Mo  Sn  Mo  Sn  Mo  H  
   3   1   3   1   3   1   1
Cartesian
  0.0000000000000000  0.0000000000000000  9.9999991124486343
 -1.5873948876649833  2.7494488054300290  9.9999991124486343
  1.5873948876649833  2.7494488054300290  9.9999991124486343
  3.1747897753299665  0.0000000000000000  9.9999991124486343
  3.1747897785047563  1.8329658684537202 12.5922041088887404
  1.5873948908397733  4.5824146738837488 12.5922041088887404
 -1.5873948844901937  4.5824146738837488 12.5922041088887404
  0.0000000031747895  1.8329658684537202 12.5922041088887404
 -0.2267888915974330  3.4939962865930956 15.3108572738898125
  1.3205524196653675  0.8042458506580477 15.3112140362166240
  4.4934793712207108  0.7646026206175862 15.4424203202065833
  3.2143085266465965  3.6735883524507233 14.6444402069415407
  0.5532990761370888  2.1608434343393328 16.5979651355304796
