Sn Sc Sn Sc Sn Sc  H 
 1.0000000000000000
     6.5883985337594542    0.0000000000000000    0.0000000000000000
    -3.2941987668797625    5.7057205962238360    0.0000000000000000
     0.0000000000000000    0.0000000000000000   25.3794032039782884
 Sn  Sc  Sn  Sc  Sn  Sc  H  
   3   1   3   1   3   1   1
Cartesian
  0.0000000000000000  0.0000000000000000  9.9999993282497925
 -1.6470993834398813  2.8528602981119180  9.9999993282497925
  1.6470998834398458  2.8528602981119180  9.9999993282497925
  3.2941992668797271  0.0000000000000000  9.9999993282497925
  3.2941994368405814  1.9019068635060385 12.6897016019891442
  1.6471000534006999  4.7547671616179565 12.6897016019891442
 -1.6470992134790274  4.7547671616179565 12.6897016019891442
  0.0000001699608538  1.9019068635060385 12.6897016019891442
 -0.0338256748667014  3.7207915040383233 15.4327952114925910
  1.5586903435032577  0.9596679186097864 15.4340029665322600
  4.9355332419231841  0.9477046657670367 15.5225437351783366
  3.2648684897730527  3.7856651078769028 15.1924005145477832
 -3.1992180911320207  3.8645850603849863 17.0229196645364667
