Sn Zr Sn Zr Sn Zr  H 
 1.0000000000000000
     6.5434805369381621    0.0000000000000000    0.0000000000000000
    -3.2717407684690456    5.6668205989766687    0.0000000000000000
     0.0000000000000000    0.0000000000000000   25.3427282065736676
 Sn  Zr  Sn  Zr  Sn  Zr  H  
   3   1   3   1   3   1   1
Cartesian
  0.0000000000000000  0.0000000000000000  9.9999992923310419
 -1.6358701842345371  2.8334102994883343  9.9999992923310419
  1.6358701842345371  2.8334102994883343  9.9999992923310419
  3.2717403684690742  0.0000000000000000  9.9999992923310419
  3.2717403684690742  1.8889401663255587 12.6713641032868338
  1.6358701842345371  4.7223504658138928 12.6713641032868338
 -1.6358701842345371  4.7223504658138928 12.6713641032868338
  0.0000000000000000  1.8889401663255587 12.6713641032868338
 -0.0000272999980681  3.7530494344083229 15.7645644843906290
  1.5969883869860813  0.9396550335035254 15.5233586014600213
  4.9465786499459590  0.9396405335045517 15.5233719014590807
  3.2717238684702417  3.7932789315614062 14.9344158431376766
 -0.0000080999994268  3.5658637476548738 17.5361759590191753
