Sn Zr Sn Zr Sn Zr Sn  H 
 1.0000000000000000
     6.5434805369381621    0.0000000000000000    0.0000000000000000
     3.2717407684690456    5.6668205989766687    0.0000000000000000
     0.0000000000000000    0.0000000000000000   25.3427282065736676
 Sn  Zr  Sn  Zr  Sn  Zr  Sn  H  
   1   1   3   1   3   1   2   1
Cartesian
  0.0000000000000000  0.0000000000000000  9.9999992875414438
  1.6358703842345228  2.8334102994883343  9.9999992875414438
  3.2717402684690811  0.0000000000000000  9.9999992875414438
  4.9076106527036041  2.8334102994883343  9.9999992875414438
  6.5434808735432126  3.7778804012067191 12.6713641032868338
  4.9076104893086896  0.9444701017183850 12.6713641032868338
  3.2717406050741316  3.7778804012067191 12.6713641032868338
  1.6358702208396085  0.9444701017183850 12.6713641032868338
  3.3305151780984943  1.8524409033108744 15.4823454806760044
  4.9082142005009208  4.7251484389276435 15.0854654321696753
  6.4795062949755113  1.8501782438484737 15.4807205809715818
  8.1777620721028654  4.7943061645133982 15.4825981983616803
  4.8979994045501281  4.7163293076999704 16.9473088746625358
