Sc La Sc La Sc La Sc La Sc La Sc  H 
 1.0000000000000000
     6.8784265132350733    0.0000000000000000    0.0000000000000000
     2.9314187925525772    6.2225025596527788    0.0000000000000000
     0.0000000000000000    0.0000000000000000   25.6966071815307480
 Sc  La  Sc  La  Sc  La  Sc  La  Sc  La  Sc  H  
   1   2   1   1   1   1   1   1   1   1   1   1
Cartesian
  0.9579150312881940  0.6076169958158244  9.9999992457650819
  4.3971282879057307  0.6076169958158244  9.9999992457650819
  2.4236244275644827  3.7188682756422136  9.9999992457650819
  5.8628376841820202  3.7188682756422136  9.9999992457650819
  6.3706320987085459  1.8594341378211068 12.8483035907653740
  2.9314188420910101  1.8594341378211068 12.8483035907653740
  4.3971282383672978  4.9706854176474957 12.8483035907653740
  7.8363414949848345  4.9706854176474957 12.8483035907653740
  3.3300927113144994 -0.0699581402125772 15.8068458923388988
 -0.1980383684162025  0.0213740909498228 15.5253002191596323
  1.2663382373648435  2.9855561245386553 15.8329779542257256
  4.8390935744239734  2.9224212819528699 15.5249128428063727
  5.8329821899909495  1.5184795895130094 16.7113667991846739
