Hf Nb Hf Nb Hf  H 
 1.0000000000000000
     6.2730805560735305    0.0000000000000000    0.0000000000000000
     2.7615328045748821    5.1981306321444052    0.0000000000000000
     0.0000000000000000    0.0000000000000000   24.9868062317611610
 Hf  Nb  Hf  Nb  Hf  H  
   2   4   2   2   2   1
Cartesian
  1.0057584542880362  1.1319880449493593  9.9999992814049072
  2.3865248565754773  3.7310533610215617  9.9999992814049072
  4.1422987323248011  1.1319880449493593  9.9999992814049072
  5.5230651346122421  3.7310533610215617  9.9999992814049072
  2.7615325659253549  1.8655266779117157 12.4934031158805805
  4.1422989682127955  4.4645919939839187 12.4934031158805805
  5.8980728439621197  1.8655266779117157 12.4934031158805805
  7.2788392462495608  4.4645919939839187 12.4934031158805805
  0.1246022221652559 -0.0676323526436370 14.7432742927587057
  1.3701571650963478  2.6036009449552799 14.7303278038854248
  3.1420298637223634  0.0295839961115883 15.0836022895716138
  4.4942028577499835  2.5772889901420548 15.0837032612555948
  3.7769541066743986  1.3252455854734091 16.4681652746128862
