Sn Ga Sn Ga Sn Ga  H 
 1.0000000000000000
     6.7255515240535626    0.0000000000000000    0.0000000000000000
    -3.3627757620267813    5.8244985878182867    0.0000000000000000
     0.0000000000000000    0.0000000000000000   25.4913891960533903
 Sn  Ga  Sn  Ga  Sn  Ga  H  
   3   1   3   1   3   1   1
Cartesian
  0.0000000000000000  0.0000000000000000  9.9999994786612394
 -1.6813878810133907  2.9122492939091433  9.9999994786612394
  1.6813878810133907  2.9122492939091433  9.9999994786612394
  3.3627757620267813  0.0000000000000000  9.9999994786612394
  3.3627757653895571  1.9414995273312627 12.7456945980266951
  1.6813878843761665  4.8537488212404059 12.7456945980266951
 -1.6813878776506150  4.8537488212404059 12.7456945980266951
  0.0000000033627756  1.9414995273312627 12.7456945980266951
 -0.0322044022490262  3.7901547182801449 15.6121369983479585
  1.7071796615624504  0.9558754067132510 15.3249233240165523
  5.1084925883394279  1.0450664486708925 15.6121360806579474
  3.3296029139860495  3.9021508796940596 15.3834116595865993
 -0.8797808249362616  2.4494491449470845 16.9329707549111568
