Al Hf Al Hf Al Hf  H 
 1.0000000000000000
     5.7693285917224957    0.0000000000000000    0.0000000000000000
    -2.8846637958612833    4.9963846464213431    0.0000000000000000
     0.0000000000000000    0.0000000000000000   24.7106352513049252
 Al  Hf  Al  Hf  Al  Hf  H  
   3   1   3   1   3   1   1
Cartesian
  0.0000000000000000  0.0000000000000000  9.9999992923310419
 -1.4423320979306276  2.4981925232106579  9.9999992923310419
  1.4423320979306276  2.4981925232106579  9.9999992923310419
  2.8846642958612478  0.0000000000000000  9.9999992923310419
  2.8846642958612478  1.6654616821404384 12.3553178256524490
  1.4423320979306276  4.1636542053510954 12.3553178256524490
 -1.4423320979306276  4.1636542053510954 12.3553178256524490
  0.0000000000000000  1.6654616821404384 12.3553178256524490
  0.0000662999953082  3.3020367663250916 15.0078368379419000
  1.4622134965236824  0.7576299463848768 14.7919911532166282
  4.3071670951951333  0.7575760463886910 14.7919885532168145
  2.8845044958725565  3.2861005674528472 14.5832283679901256
  0.0000271999980751  2.8981866949043096 16.5923714258092971
