Sc  V Sc  V Sc  V Sc  H 
 1.0000000000000000
     6.0452565721959282    0.0000000000000000    0.0000000000000000
     2.5694308181693439    4.9460856499808479    0.0000000000000000
     0.0000000000000000    0.0000000000000000   24.7625722476295067
 Sc  V   Sc  V   Sc  V   Sc  H  
   1   1   1   3   3   2   1   1
Cartesian
  0.8315184741343247  1.1382547096182221  9.9999993561639453
  3.8541467602322887  1.1382547096182221  9.9999993561639453
  2.1162338832189969  3.6112975346086462  9.9999993561639453
  5.1388621693169609  3.6112975346086462  9.9999993561639453
  2.5694310846584805  1.8056487673043231 12.3812861238147534
  3.8541464937431522  4.2786915922947468 12.3812861238147534
  5.5920593707564441  1.8056487673043231 12.3812861238147534
  6.8767747798411154  4.2786915922947468 12.3812861238147534
  2.8915686632797861  0.0680692029373355 14.9506834306370191
  0.1635058733894541 -0.0491998565061446 14.4402568375842026
  1.4189847818101295  2.3675535016213365 14.4402274939360886
  4.3646634178027757  2.4432763071699664 14.8621058029891859
  0.6451017671839792  1.2350798956168676 15.6706123547242857
