 W Sc  W Sc  W Sc  W Sc  W  H 
 1.0000000000000000
     6.1710345632950094    0.0000000000000000    0.0000000000000000
     2.5121738222212442    4.9693466483347386    0.0000000000000000
     0.0000000000000000    0.0000000000000000   24.8043232446749151
 W   Sc  W   Sc  W   Sc  W   Sc  W   H  
   1   1   1   2   2   2   1   1   1   1
Cartesian
  0.6827439489358337  1.2146837040042697  9.9999994390858316
  3.7682612305833385  1.2146837040042697  9.9999994390858316
  1.9388308600464557  3.6993570281716393  9.9999994390858316
  5.0243481416939604  3.6993570281716393  9.9999994390858316
  2.5121740665053762  1.8496785116011463 12.4021616223374576
  5.5976913481528809  1.8496785116011463 12.4021616223374576
  6.8537782592635033  4.3343518357685156 12.4021616223374576
  3.7682609776159985  4.3343518357685156 12.4021616223374576
 -0.0931065212284330  0.0754594940695365 15.0248072025219077
  3.1311368047507169 -0.0230626334386419 14.5593631304135673
  1.1401174734854700  2.5149091647687625 15.0248075249781099
  4.3091796285981934  2.5010656532934177 14.5302213743803872
  0.6506602545764573  1.2309034029971020 16.4293975965977488
