Sc Tc Sc Tc Sc Tc  H 
 1.0000000000000000
     6.0922345688714401    0.0000000000000000    0.0000000000000000
    -3.0461177844356850    5.2760306266316634    0.0000000000000000
     0.0000000000000000    0.0000000000000000   24.9742872326470930
 Sc  Tc  Sc  Tc  Sc  Tc  H  
   3   1   3   1   3   1   1
Cartesian
  0.0000000000000000  0.0000000000000000  9.9999991546955176
 -1.5230588922178425  2.6380153133158317  9.9999991546955176
  1.5230583922178775  2.6380153133158317  9.9999991546955176
  3.0461172844357201  0.0000000000000000  9.9999991546955176
  3.0461171208151825  1.7586768737852110 12.4871436163235465
  1.5230582285973400  4.3966921871010429 12.4871436163235465
 -1.5230590558383801  4.3966921871010429 12.4871436163235465
 -0.0000001636205376  1.7586768737852110 12.4871436163235465
 -0.0672290213428428  3.4769185020973867 14.9890018790689865
  1.4544156650045745  0.8413234781390018 14.9889990320002422
  4.4999073776581060  0.8393590694838799 15.0470791344913390
  3.0132370471807302  3.4983708426252713 14.5126536876941667
 -0.0825472551896764  5.2283746847834802 16.1045935497793131
