Sc In Sc In Sc In Sc  H 
 1.0000000000000000
     6.2996285541948112    0.0000000000000000    0.0000000000000000
     2.9250187930054850    5.5793896051638896    0.0000000000000000
     0.0000000000000000    0.0000000000000000   25.1926442171946441
 Sc  In  Sc  In  Sc  In  Sc  H  
   1   2   2   2   2   2   1   1
Cartesian
  0.0000000000000000  0.0000000000000000  9.9999993336814939
  1.4625093965027425  2.7896948025819448  9.9999993336814939
  3.1498142770974056  0.0000000000000000  9.9999993336814939
  4.6123236736001481  2.7896948025819448  9.9999993336814939
  6.2996286511560928  3.8102359136060033 12.5963221085973220
  4.8371192546533504  1.0205411110240585 12.5963221085973220
  3.1498143740586864  3.8102359136060033 12.5963221085973220
  1.6873049775559439  1.0205411110240585 12.5963221085973220
  3.3098578473378351  2.0014610906281614 15.2312458087620630
  4.7347561322744030  4.8052009799334190 15.3661774600334908
  6.4542814856905490  1.9619017230511355 15.3662118731854918
  7.9519270245867171  4.8098063420188719 15.0944377085787576
  2.1021265713715933  1.2719895936868086 16.5613918528960582
