Zr Mo Zr Mo Zr Mo Zr Mo Zr  H 
 1.0000000000000000
     5.7989985896228422    0.0000000000000000    0.0000000000000000
     1.9309558633522379    5.4680696130416599    0.0000000000000000
     0.0000000000000000    0.0000000000000000   24.7342332496349719
 Zr  Mo  Zr  Mo  Zr  Mo  Zr  Mo  Zr  H  
   1   2   1   2   2   1   1   1   1   1
Cartesian
  3.8619119826188033  2.7318664927284049  9.9999991792934271
  6.7614112774302244  2.7318664927284049  9.9999991792934271
  4.8273899142949217  5.4659012992492348  9.9999991792934271
  7.7268892091063428  5.4659012992492348  9.9999991792934271
  2.8964339191205433  4.0999680501509976 12.3671166248174860
  4.8304552822558451  1.3659332436301677 12.3671166248174860
  1.9309559874444242  1.3659332436301677 12.3671166248174860
  5.7959332139319635  4.0999680501509976 12.3671166248174860
  2.9276102608790171 -0.0426984933150800 14.6851540549754613
 -0.0035208117058441 -0.0024153885178904 14.7158383553756291
  6.7333034523451136  2.7746119130169040 14.6851427019623983
  3.8653048743693179  2.7341573404927884 14.7158654888295022
  1.9327065954287861  1.3671525137924836 15.6394512810506754
