Zr Rh Zr Rh Zr Rh Zr Rh  H 
 1.0000000000000000
     5.7245375948922161    0.0000000000000000    0.0000000000000000
     1.9977568586249386    5.3646336203615048    0.0000000000000000
     0.0000000000000000    0.0000000000000000   24.6985632521592215
 Zr  Rh  Zr  Rh  Zr  Rh  Zr  Rh  H  
   1   2   2   2   1   1   2   1   1
Cartesian
  0.1343666184234358  0.0933437183712083  9.9999992162207807
  2.9966354158695436  0.0933437183712083  9.9999992162207807
  1.1332450477359053  2.7756605285519607  9.9999992162207807
  3.9955138451820131  2.7756605285519607  9.9999992162207807
  1.9977569264521535  1.3878302669582971 12.3492816260796108
  4.8600257238982616  1.3878302669582971 12.3492816260796108
  2.9966353557646230  4.0701470771390493 12.3492816260796108
  5.8589041532107311  4.0701470771390493 12.3492816260796108
  2.9419456605865193  0.0672705850604972 14.5326298507477798
  3.9577223481579651  2.7492619068256015 14.7466389001604909
  0.0613671996224155  0.0427577286151001 14.7461279609824931
  1.0897689474678061  2.7335332516799258 14.5326197737339733
  2.0122682174295927  1.3979125057380684 15.4744832810975694
