Zr Ta Zr Ta Zr Ta  H 
 1.0000000000000000
     6.2881055550102580    0.0000000000000000    0.0000000000000000
    -3.1440527775051290    5.4456586146276171    0.0000000000000000
     0.0000000000000000    0.0000000000000000   25.1342152213294838
 Zr  Ta  Zr  Ta  Zr  Ta  H  
   3   1   3   1   3   1   1
Cartesian
  0.0000000000000000  0.0000000000000000  9.9999994299532489
 -1.5720263887525645  2.7228293073138086  9.9999994299532489
  1.5720263887525645  2.7228293073138086  9.9999994299532489
  3.1440527775051290  0.0000000000000000  9.9999994299532489
  3.1440527806491820  1.8152195363939863 12.5671076106647419
  1.5720263918966175  4.5380488437077950 12.5671076106647419
 -1.5720263856085117  4.5380488437077950 12.5671076106647419
  0.0000000031440528  1.8152195363939863 12.5671076106647419
 -0.0616598488583697  3.5670583918043408 15.0940281165719004
  1.4863324352387430  0.8859769247471658 15.0940557139402127
  4.6869610213632216  0.8907669478472268 15.1103508037551535
  3.1120043911422859  3.6120756040038282 14.8600401848687564
 -0.0554661371998986  5.4136345097193104 16.2115355903249956
