Sc Tl Sc Tl Sc Tl  H 
 1.0000000000000000
     6.4270295451790380    0.0000000000000000    0.0000000000000000
    -3.2135147725895190    5.5659716061134397    0.0000000000000000
     0.0000000000000000    0.0000000000000000   25.2476462133023283
 Sc  Tl  Sc  Tl  Sc  Tl  H  
   3   1   3   1   3   1   1
Cartesian
  0.0000000000000000  0.0000000000000000  9.9999991686695147
 -1.6067573862947595  2.7829858030567198  9.9999991686695147
  1.6067573862947595  2.7829858030567198  9.9999991686695147
  3.2135147725895190  0.0000000000000000  9.9999991686695147
  3.2135147758030334  1.8553238668491561 12.6238231066511641
  1.6067573895082741  4.6383096699058761 12.6238231066511641
 -1.6067573830812447  4.6383096699058761 12.6238231066511641
  0.0000000032135148  1.8553238668491561 12.6238231066511641
 -0.0095590013804143  3.7088406352629266 15.2469321575302814
  1.5808186373723294  0.9423835414877215 15.2470163836780497
  4.8170132917777035  0.9373013863974978 15.2468769661756589
  3.1929415617990715  3.7226735608185377 15.2482163538072744
 -0.0161229427224792  1.8647350509775518 16.1986368542873613
