Sc Ta Sc Ta Sc Ta Sc  H 
 1.0000000000000000
     5.7450375934414950    0.0000000000000000    0.0000000000000000
    -2.8725187967207475    5.7112295958339816    0.0000000000000000
     0.0000000000000000    0.0000000000000000   24.9654912332695567
 Sc  Ta  Sc  Ta  Sc  Ta  Sc  H  
   1   2   2   2   2   2   1   1
Cartesian
  0.0000000000000000  0.0000000000000000  9.9999993891353807
 -1.4362593983603738  2.8556147979169908  9.9999993891353807
  1.4362593983603738  2.8556147979169908  9.9999993891353807
  2.8725187967207475  0.0000000000000000  9.9999993891353807
  2.8725187995932666  1.4447616352008668 12.4827456166347783
  1.4362594012328929  4.3003764331178580 12.4827456166347783
 -1.4362593954878551  4.3003764331178580 12.4827456166347783
  0.0000000028725188  1.4447616352008668 12.4827456166347783
 -0.0000704600135646  3.0494893343118603 15.0016380806852805
  1.4449592725216935  0.0669796158872102 14.7819753863492007
  4.2997792342626875  0.0669967838433752 14.7820452897246533
  2.8724664881534601  3.0327860380754710 14.9506641897879646
 -0.0002138877496036  5.0226674673334291 15.9889057963248398
