Zn  Y Zn  Y Zn  Y Zn  Y Zn  H 
 1.0000000000000000
     6.2081975606650994    0.0000000000000000    0.0000000000000000
     2.0693888535557643    5.8531485857908150    0.0000000000000000
     0.0000000000000000    0.0000000000000000   25.0689672259468814
 Zn  Y   Zn  Y   Zn  Y   Zn  Y   Zn  H  
   1   2   1   1   1   1   1   2   2   1
Cartesian
  4.1387772065358934  2.9265629787591911  9.9999992941535485
  7.2428759868684436  2.9265629787591911  9.9999992941535485
  5.1734716333137758  5.8531372716545986  9.9999992941535485
  8.2775704136463268  5.8531372716545986  9.9999992941535485
  5.1734873877392893  1.4632814923061699 12.5344836129734407
  2.0693886074067400  1.4632814923061699 12.5344836129734407
  3.1040830341846219  4.3898557852015774 12.5344836129734407
  6.2081818145171717  4.3898557852015774 12.5344836129734407
  3.0721370798321441  0.0455731182597457 15.0823269086693994
  1.0666326788545040  2.8810360652543814 15.0823013633917977
  4.2225031610524084  2.9861329536517847 14.9306993160585719
 -0.0837165739904825 -0.0595357164139209 14.9306047308452285
  2.0693996910164256  1.4633338077482299 16.3100132460728666
