Ta La Ta La Ta La Ta La Ta  H 
 1.0000000000000000
     6.8120205179344193    0.0000000000000000    0.0000000000000000
     2.8268997999490626    5.5247116090332815    0.0000000000000000
     0.0000000000000000    0.0000000000000000   25.3319912073334912
 Ta  La  Ta  La  Ta  La  Ta  La  Ta  H  
   2   2   1   2   1   1   1   1   1   1
Cartesian
  2.2477896201400571  4.0782354220824866  9.9999991933949808
  0.8343397201655259  1.3158796175658456  9.9999991933949808
  4.2403499791327359  1.3158796175658456  9.9999991933949808
  5.6537998791072663  4.0782354220824866  9.9999991933949808
  6.2329101999342926  2.0391177138035990 12.6659956036667456
  2.8268999409670830  2.0391177138035990 12.6659956036667456
  4.2403498409416143  4.8014735183202397 12.6659956036667456
  7.6463600999088239  4.8014735183202397 12.6659956036667456
 -0.0509753290080089  0.0260006574358781 15.6035963546093690
  3.5901721783000946 -0.0178160623732525 15.0429503211241098
  1.2640941930634475  2.8387846317677372 15.5737266184850753
  4.9416373369793467  2.6232690351217003 15.0429027983086048
  4.1181628710271116  1.3784067013905177 16.3063630410009281
