Sc Ti Sc Ti Sc Ti  H 
 1.0000000000000000
     6.3121365533096583    0.0000000000000000    0.0000000000000000
    -3.1560687766547941    5.4664706131548169    0.0000000000000000
     0.0000000000000000    0.0000000000000000   25.1538372199408968
 Sc  Ti  Sc  Ti  Sc  Ti  H  
   3   1   3   1   3   1   1
Cartesian
  0.0000000000000000  0.0000000000000000  9.9999994461396344
 -1.5780343883273971  2.7332353065774084  9.9999994461396344
  1.5780338883274321  2.7332353065774084  9.9999994461396344
  3.1560682766548291  0.0000000000000000  9.9999994461396344
  3.1560681131442423  1.8221568692294488 12.5769186099704484
  1.5780337248168452  4.5553921758068574 12.5769186099704484
 -1.5780345518379837  4.5553921758068574 12.5769186099704484
 -0.0000001635105866  1.8221568692294488 12.5769186099704484
 -0.0103766681628219  3.6761682074735211 15.1579153114299636
  1.6006207502944381  0.8857119419105589 15.1580412063852492
  4.6982018864921669  0.8901102969647270 15.1503254177410565
  3.1425293169235049  3.6364722011602097 14.8611265695329280
 -0.0046541097795818  5.4635183035719468 16.2563744280587308
