Zn Cu Zn Cu Zn Cu Zn  H 
 1.0000000000000000
     5.4260476160154267    0.0000000000000000    0.0000000000000000
     2.7130238080077134    4.6990946674596339    0.0000000000000000
     0.0000000000000000    0.0000000000000000   24.4303472711400396
 Zn  Cu  Zn  Cu  Zn  Cu  Zn  H  
   1   1   3   1   3   1   2   1
Cartesian
  0.0000000000000000  0.0000000000000000  9.9999991206206715
  1.3565119040038567  2.3495473337298169  9.9999991206206715
  2.7130238080077134  0.0000000000000000  9.9999991206206715
  4.0695357120115698  2.3495473337298169  9.9999991206206715
  5.4260476187284503  3.1327297798727876 12.2151736355700198
  4.0695357147245934  0.7831824461429705 12.2151736355700198
  2.7130238107207370  3.1327297798727876 12.2151736355700198
  1.3565119067168805  0.7831824461429705 12.2151736355700198
  2.7511568606444516  1.5438916881971700 14.6061313884931501
  4.0697615631045156  3.9156347115819821 14.3027836997133146
  5.3879095198674296  1.5442533164254937 14.6062347044317615
  6.7822117130801205  3.9599047884622260 14.6065022167343788
  1.3562234498865418  2.3501576521452265 15.5455743500546504
