Zn Cu Zn Cu Zn Cu Zn  H 
 1.0000000000000000
     5.4260476160154267    0.0000000000000000    0.0000000000000000
     2.7130238080077134    4.6990946674596339    0.0000000000000000
     0.0000000000000000    0.0000000000000000   24.4303472711400396
 Zn  Cu  Zn  Cu  Zn  Cu  Zn  H  
   1   1   3   1   3   1   2   1
Cartesian
  0.0000000000000000  0.0000000000000000  9.9999991206206715
  1.3565119040038567  2.3495473337298169  9.9999991206206715
  2.7130238080077134  0.0000000000000000  9.9999991206206715
  4.0695357120115698  2.3495473337298169  9.9999991206206715
  5.4260476187284503  3.1327297798727876 12.2151736355700198
  4.0695357147245934  0.7831824461429705 12.2151736355700198
  2.7130238107207370  3.1327297798727876 12.2151736355700198
  1.3565119067168805  0.7831824461429705 12.2151736355700198
  2.7235372391908146  1.5603826675276797 14.5113487258818363
  4.0492471638054077  3.9274397302146276 14.4617721733038174
  5.4071858009084917  1.6220021355559058 14.6283513023735470
  6.7245246715723095  3.9038293452163311 14.6282106324339587
  2.8666051123049363  4.6112805332234581 15.4531287433239850
