Zn La Zn La Zn La Zn La Zn  H 
 1.0000000000000000
     6.6173365317116017    0.0000000000000000    0.0000000000000000
     2.0713128534196086    6.2848075552436473    0.0000000000000000
     0.0000000000000000    0.0000000000000000   25.3559202056401105
 Zn  La  Zn  La  Zn  La  Zn  La  Zn  H  
   1   2   2   2   1   1   1   1   1   1
Cartesian
  4.1426261859002338  2.9965081104838238  9.9999994079262144
  7.4512944517560342  2.9965081104838238  9.9999994079262144
  5.1782826126100385  6.1389118881056479  9.9999994079262144
  8.4869508784658390  6.1389118881056479  9.9999994079262144
  2.0713130972944414  1.4982540583843158 12.6779601028200553
  5.3799813631502422  1.4982540583843158 12.6779601028200553
  3.1069695240042456  4.6406578360061399 12.6779601028200553
  6.4156377898600470  4.6406578360061399 12.6779601028200553
  3.2136403832821512  0.0052125628230511 15.3384270130423381
 -0.1316857855124431 -0.0952303767910254 15.1283393190943389
  1.0104975414693487  3.0501962801383344 15.3384154253868061
  4.3468308769346393  3.1442574187621668 15.1260821097217111
  2.1686669466176012  1.5686531039613054 16.6202341469997350
