Zr Os Zr Os Zr Os Zr  H 
 1.0000000000000000
     6.1297285662181071    0.0000000000000000    0.0000000000000000
     3.0648637831090886    5.3085006243338624    0.0000000000000000
     0.0000000000000000    0.0000000000000000   25.0049012304806340
 Zr  Os  Zr  Os  Zr  Os  Zr  H  
   1   1   3   1   3   1   2   1
Cartesian
  0.0000000000000000  0.0000000000000000  9.9999994578083520
  1.5324318915545443  2.6542503121669312  9.9999994578083520
  3.0648642831090536  0.0000000000000000  9.9999994578083520
  4.5972961746635974  2.6542503121669312  9.9999994578083520
  6.1297282359496617  3.5390004179920749 12.5024506152403170
  4.5972963443951169  0.8847501058251439 12.5024506152403170
  3.0648639528406081  3.5390004179920749 12.5024506152403170
  1.5324320612860634  0.8847501058251439 12.5024506152403170
  3.1104219445427383  1.7399242667083550 15.0248207019973830
  4.5973705822794049  4.4237003478693175 14.5419489539238693
  6.0800524747912572  1.7441938990690071 15.0240822572542445
  7.6640375580791762  4.4801090063535520 15.0236860545942488
  1.5314347073344918  2.6540050594380871 16.1762979289599933
