Sc Nb Sc Nb Sc Nb Sc Nb  H 
 1.0000000000000000
     6.3232525525230141    0.0000000000000000    0.0000000000000000
     2.6761018106205690    5.1654446344574918    0.0000000000000000
     0.0000000000000000    0.0000000000000000   24.9759032325327333
 Sc  Nb  Sc  Nb  Sc  Nb  Sc  Nb  H  
   1   1   1   2   2   2   2   1   1
Cartesian
  4.0141534421165739  1.1962929941809173  9.9999991693837860
  0.8525271658550667  1.1962929941809173  9.9999991693837860
  5.3522043474268584  3.7790153114096632  9.9999991693837860
  2.1905780711653513  3.7790153114096632  9.9999991693837860
  5.8377284513129872  1.8895076582875538 12.4879516162663666
  2.6761021750514802  1.8895076582875538 12.4879516162663666
  4.0141530803617647  4.4722299755163002 12.4879516162663666
  7.1757793566232717  4.4722299755163002 12.4879516162663666
  3.2532319537687293 -0.0474798734580115 14.7251889782237821
 -0.0429932670268027  0.0445948228317726 15.1081994494753182
  1.2767507097652313  2.5922125975341830 15.1082207539207758
  4.5144117133009276  2.5752732398522840 14.7016614525956086
  0.7083222795455916  1.2709851789627229 16.4611394071359030
