Ir  N  H 
 1.0000000000000000
     5.9138299999999999    0.0000000000000000    0.0000000000000000
     0.0000000000000000    9.6572399999999998    0.0000000000000000
     0.0000000000000000    0.0000000000000000   33.4536999999999978
 Ir  N   H  
  16  48   1
Cartesian
  4.7606299999999999  4.8286199999999999  5.1016899999999996
  0.8180600000000000  0.0000000000000000  2.3139900000000000
  4.7606299999999999  7.2429300000000003  0.9199800000000000
  2.7893200000000000  2.4143100000000000  3.7076699999999998
  4.7606299999999999  2.4143100000000000  0.9199800000000000
  2.7893200000000000  7.2429300000000003  3.7076699999999998
  0.8180600000000000  4.8286199999999999  2.3139900000000000
  4.7606299999999999  0.0000000000000000  5.1016899999999996
  0.7823600000000001  4.8805899999999998 10.5795399999999997
  2.7997800000000002  0.0005800000000000  7.8684799999999999
  0.8185600000000000  7.2389900000000003  6.5037099999999999
  4.7793500000000000  2.4312499999999999  9.3031699999999997
  0.8161500000000000  2.3977599999999999  6.4968599999999999
  4.8413599999999999  7.2974899999999998  9.3784299999999998
  2.7860900000000002  4.8246300000000000  7.9310799999999997
  0.5593600000000000  0.1806100000000000 10.7512500000000006
  5.3520799999999999  5.8716999999999997  3.4289999999999998
  1.4095000000000000  1.0430800000000000  0.6413100000000000
  2.1979299999999999  3.7855400000000001  1.1986500000000000
  0.2266200000000000  8.6141600000000000  3.9863400000000002
  0.6840500000000000  1.9315400000000000  0.1281300000000000
  4.6266299999999996  6.7601599999999999  2.9161600000000001
  0.9520700000000000  7.7256999999999998  4.4995200000000004
  2.9233199999999999  2.8970799999999999  1.7114900000000000
  2.9233199999999999  5.2728500000000000  4.2877599999999996
  4.8945800000000004  0.4442300000000000  1.4997300000000000
  4.6266299999999996  4.3843899999999998  0.3398900000000000
  2.6553700000000000  9.2130100000000006  3.1279200000000000
  2.1979299999999999  4.3843899999999998  3.7745799999999998
  4.1691900000000004  9.2130100000000006  0.9868800000000000
  5.3520799999999999  5.2728500000000000  0.8530700000000000
  3.3807600000000000  0.4442300000000000  3.6407699999999998
  4.6266299999999996  3.3413100000000000  3.6855899999999999
  0.6840500000000000  8.1699300000000008  0.8975600000000000
  2.9233199999999999  6.3159299999999998  0.9420600000000000
  0.9520700000000000  1.4873099999999999  3.7300900000000001
  0.2266200000000000  1.4873099999999999  4.7557799999999997
  2.1979299999999999  6.3159299999999998  1.9680800000000001
  3.3807600000000000  8.1699300000000008  5.4472699999999996
  5.3520799999999999  3.3413100000000000  2.6595700000000000
  1.4004900000000000  5.8813500000000003  9.0234400000000008
  3.3821300000000001  1.0512900000000001  6.2144700000000004
  4.1520400000000004  3.7979200000000000  6.7991299999999999
  2.2862399999999998  8.5134100000000004  9.5366400000000002
  2.6512899999999999  1.9328399999999999  5.7142900000000001
  0.7038000000000000  6.7908999999999997  8.5116200000000006
  2.9643299999999999  7.7615400000000001 10.1319099999999995
  4.8566099999999999  2.8917700000000002  7.2922500000000001
  4.8648499999999997  5.3010799999999998  9.9931999999999999
  0.9581700000000000  0.4334000000000000  7.0811299999999999
  0.6942500000000000  4.3765900000000002  5.9314700000000000
  4.6564300000000003  9.2212800000000001  8.6971399999999992
  4.1322099999999997  4.3910299999999998  9.5120400000000007
  0.2248100000000000  9.2073999999999998  6.5731500000000000
  1.4179800000000000  5.2601599999999999  6.4482299999999997
  5.2729900000000001  0.5075700000000000  9.2562300000000004
  0.6606400000000000  3.3334700000000002  9.2194599999999998
  2.6530100000000001  8.1716099999999994  6.4615799999999997
  4.8854699999999998  6.3112800000000000  6.5559399999999997
  2.8793000000000002  1.4530600000000000  9.4172799999999999
  2.0590400000000000  1.3408500000000001 10.3026300000000006
  4.1806500000000000  6.3104899999999997  7.5941099999999997
  5.6314500000000001  8.2500000000000000 10.9052900000000008
  1.4153000000000000  3.2955000000000001  8.2215100000000003
  0.8330400000000000  6.0553800000000004 11.7125800000000009
