Pd Cr Pd Cr Pd Cr  H 
 1.0000000000000000
     5.5031976105557607    0.0000000000000000    0.0000000000000000
    -2.7515988052778804    4.7659086627314142    0.0000000000000000
     0.0000000000000000    0.0000000000000000   24.4933402666822175
 Pd  Cr  Pd  Cr  Pd  Cr  H  
   3   1   3   1   3   1   1
Cartesian
  0.0000000000000000  0.0000000000000000  9.9999991966275523
 -1.3757994026389402  2.3829543313657071  9.9999991966275523
  1.3757994026389402  2.3829543313657071  9.9999991966275523
  2.7515988052778804  0.0000000000000000  9.9999991966275523
  2.7515988080294789  1.5886362193218353 12.2466701333411088
  1.3757994053905387  3.9715905506875422 12.2466701333411088
 -1.3757993998873417  3.9715905506875422 12.2466701333411088
  0.0000000027515987  1.5886362193218353 12.2466701333411088
  0.0571070915929592  3.1934897153662267 14.5570151575856048
  1.4074961506552666  0.8478999458754396 14.5052053256664220
  4.2101442569215504  0.8233865232641325 14.4831991616371205
  2.7359888064016169  3.1521970915714839 14.3265048052948600
 -1.4875566722452307  3.1721564453942097 15.5118023011912776
