Cd In Cd In Cd In  H 
 1.0000000000000000
     6.6641535283985087    0.0000000000000000    0.0000000000000000
    -3.3320767641992544    5.9556595785364292    0.0000000000000000
     0.0000000000000000    0.0000000000000000   25.5235381937783039
 Cd  In  Cd  In  Cd  In  H  
   2   2   2   2   2   2   1
Cartesian
  0.0000000000000000  0.0000000000000000  9.9999992923310419
  3.3320766641992612  0.0000000000000000  9.9999992923310419
  1.6660383820996272  2.9778296892682219  9.9999992923310419
 -1.6660383820996272  2.9778296892682219  9.9999992923310419
  3.3320766641992612  1.8642326680740315 12.7617688968891656
  0.0000000000000000  1.8642326680740315 12.7617688968891656
 -1.6660383820996272  4.8420623573422530 12.7617688968891656
  1.6660383820996272  4.8420623573422530 12.7617688968891656
 -0.0007913999439951  3.7118587373232610 15.5170458019067592
  3.3328666641433555  3.7115578373445546 15.5171195019015435
  4.9981707462949467  0.7926734439049571 15.5240689014097555
  1.6660359820997968  0.7910585440192385 15.5412284001954308
  4.9981410462970484  0.7546749465939929 17.3213540742214533
