Pd Co Pd Co Pd Co Pd  H 
 1.0000000000000000
     5.4745576125825242    0.0000000000000000    0.0000000000000000
     2.7372788062912621    4.7411066644865754    0.0000000000000000
     0.0000000000000000    0.0000000000000000   24.4699562683370289
 Pd  Co  Pd  Co  Pd  Co  Pd  H  
   1   1   3   1   3   1   2   1
Cartesian
  0.0000000000000000  0.0000000000000000  9.9999992133875910
  1.3686394031456310  2.3705533322432877  9.9999992133875910
  2.7372788062912621  0.0000000000000000  9.9999992133875910
  4.1059182094368936  2.3705533322432877  9.9999992133875910
  5.4745576153198030  3.1607377779047523 12.2349781341685144
  4.1059182121741715  0.7901844456614647 12.2349781341685144
  2.7372788090285409  3.1607377779047523 12.2349781341685144
  1.3686394058829097  0.7901844456614647 12.2349781341685144
  2.7619634031687164  1.5970764326809137 14.5537888983587411
  4.1058927363203219  3.9464302525747361 14.3735979642482992
  5.4496382256154599  1.5972811868544328 14.5535117026941325
  6.8430210169127470  3.9885806394168606 14.4962936528917936
  1.3683731890953252  0.6555459770816419 15.3415055428351259
