Fe Cu Fe Cu Fe Cu  H 
 1.0000000000000000
     5.0906216397524835    0.0000000000000000    0.0000000000000000
    -2.5453108198762417    4.5368326789424112    0.0000000000000000
     0.0000000000000000    0.0000000000000000   24.2139832864514482
 Fe  Cu  Fe  Cu  Fe  Cu  H  
   2   2   2   2   2   2   1
Cartesian
  0.0000000000000000  0.0000000000000000  9.9999992923310419
  2.5453109198762349  0.0000000000000000  9.9999992923310419
  1.2726555099381138  2.2684165394711919  9.9999992923310419
 -1.2726555099381138  2.2684165394711919  9.9999992923310419
  2.5453109198762349  1.4280022989447030 12.1069917432257164
  0.0000000000000000  1.4280022989447030 12.1069917432257164
 -1.2726555099381138  3.6964187384159017 12.1069917432257164
  1.2726555099381138  3.6964187384159017 12.1069917432257164
 -0.0001227999913098  2.8238222001668545 14.1819659963862197
  2.5452627198796458  2.8360709993000452 14.1459449989353132
  3.8243673293613765  0.5740239593781034 14.2632374906348875
  1.2661705103970371  0.5737835593951157 14.2630980906447515
  0.0001034999926756  4.2638023982639188 15.1784066258712027
