Pd Co Pd Co Pd Co Pd  H 
 1.0000000000000000
     5.4745576125825242    0.0000000000000000    0.0000000000000000
     2.7372788062912621    4.7411066644865754    0.0000000000000000
     0.0000000000000000    0.0000000000000000   24.4699562683370289
 Pd  Co  Pd  Co  Pd  Co  Pd  H  
   1   1   3   1   3   1   2   1
Cartesian
  0.0000000000000000  0.0000000000000000  9.9999992133875910
  1.3686394031456310  2.3705533322432877  9.9999992133875910
  2.7372788062912621  0.0000000000000000  9.9999992133875910
  4.1059182094368936  2.3705533322432877  9.9999992133875910
  5.4745576153198030  3.1607377779047523 12.2349781341685144
  4.1059182121741715  0.7901844456614647 12.2349781341685144
  2.7372788090285409  3.1607377779047523 12.2349781341685144
  1.3686394058829097  0.7901844456614647 12.2349781341685144
  2.7610167755136947  1.5962033199597951 14.5335492347202049
  4.1073690246870829  3.9518302545379198 14.3778189582947178
  5.4675572629159692  1.5764095552185635 14.5137406827712052
  6.8684069538913919  3.9638398996775575 14.5337522374774064
  5.3847918470766061  4.6894346372724556 15.3649413498116498
