Mo Tc Mo Tc Mo Tc  H 
 1.0000000000000000
     5.5582006066633696    0.0000000000000000    0.0000000000000000
     2.7420118059563223    4.8347666578585482    0.0000000000000000
     0.0000000000000000    0.0000000000000000   24.5479732628160114
 Mo  Tc  Mo  Tc  Mo  Tc  H  
   2   2   2   2   2   2   1
Cartesian
  0.0000000000000000  0.0000000000000000  9.9999992923310419
  4.1501061063098534  2.4173832289292805  9.9999992923310419
  2.7791003033316848  0.0000000000000000  9.9999992923310419
  1.3710058029781684  2.4173832289292805  9.9999992923310419
  5.5582006066633696  3.2375801708864853 12.2739867314079980
  1.4080945003535164  0.8201969419572044 12.2739867314079980
  2.7791003033316848  3.2375801708864853 12.2739867314079980
  4.1871949036851932  0.8201969419572044 12.2739867314079980
  2.7997967018670646  1.6303761846233302 14.4343597785250939
  6.9642195071637687  4.0565675129292886 14.4353709784535340
  5.5200738093614845  1.6582665826496132 14.4770630755031124
  4.1640010053265542  3.9842339180481137 14.4766971755290061
  1.3394676052100287  0.7799444448057489 15.5143222020994997
