Ru Rh Ru Rh Ru Rh Ru  H 
 1.0000000000000000
     5.3981746179879124    0.0000000000000000    0.0000000000000000
    -2.6990878089939208    4.7196766660031093    0.0000000000000000
     0.0000000000000000    0.0000000000000000   24.4283232712832721
 Ru  Rh  Ru  Rh  Ru  Rh  Ru  H  
   1   2   2   2   2   2   1   1
Cartesian
  0.0000000000000000  0.0000000000000000  9.9999991784073003
 -1.3495439044969604  2.3598383330015547  9.9999991784073003
  1.3495434044969958  2.3598383330015547  9.9999991784073003
 -0.0000004999999645  4.7196766660031093  9.9999991784073003
  2.6990871454707430  1.5435534987641526 12.2141616356416360
  1.3495432409737829  3.9033918317657070 12.2141616356416360
 -1.3495440680201736  3.9033918317657070 12.2141616356416360
 -0.0000001635232134  1.5435534987641526 12.2141616356416360
 -0.0000624237743534  3.0760271648216997 14.3463584939593485
  1.3596643774433199  0.7789677289849020 14.3813076074971065
  4.0383485783127329  0.7789203717492353 14.3813014515596418
  2.6992074350949058  3.0523973154073518 14.3777528223229947
  2.6988666422125669  4.6388123690267449 15.3599779348735161
