Hg Hf Hg Hf Hg Hf Hg  H 
 1.0000000000000000
     6.3256685523520417    0.0000000000000000    0.0000000000000000
     3.1628347761759850    5.4781896123254992    0.0000000000000000
     0.0000000000000000    0.0000000000000000   25.1648852191590642
 Hg  Hf  Hg  Hf  Hg  Hf  Hg  H  
   1   1   3   1   3   1   2   1
Cartesian
  0.0000000000000000  0.0000000000000000  9.9999991883438799
  1.5814173880879925  2.7390948061627496  9.9999991883438799
  3.1628342761760209  0.0000000000000000  9.9999991883438799
  4.7442516642640129  2.7390948061627496  9.9999991883438799
  6.3256688888481856  3.6521264100430626 12.5824426095795321
  4.7442515007601926  0.9130316038803130 12.5824426095795321
  3.1628346126721647  3.6521264100430626 12.5824426095795321
  1.5814172245841722  0.9130316038803130 12.5824426095795321
  3.1946890024075554  1.8068276405748676 15.3291006217326409
  4.7443204929095657  4.5652631458602260 14.8314304148065954
  6.2926460834427633  1.8084979186749071 15.3297438110339588
  7.9069934647740432  4.6025080039215931 15.3305579957303397
  1.5831639302930940  2.7370692236408338 16.3319816431108862
