Al  V Al  V Al  V Al  H 
 1.0000000000000000
     5.3247696231825561    0.0000000000000000    0.0000000000000000
    -2.6623848115912780    4.8169476591195428    0.0000000000000000
     0.0000000000000000    0.0000000000000000   24.4375142706328496
 Al  V   Al  V   Al  V   Al  H  
   1   2   2   2   2   2   1   1
Cartesian
  0.0000000000000000  0.0000000000000000  9.9999993362038584
 -1.3311924057956390  2.4084738295597714  9.9999993362038584
  1.3311924057956390  2.4084738295597714  9.9999993362038584
  0.0000000000000000  4.8169476591195428  9.9999993362038584
  2.6623848089288935  1.4715323606106114 12.2187571353164248
  1.3311924031332545  3.8800061901703824 12.2187571353164248
 -1.3311924084580240  3.8800061901703824 12.2187571353164248
 -0.0000000026623849  1.4715323606106114 12.2187571353164248
 -0.0000545070042477  2.8301353573349837 14.5629661113754842
  1.3360811779573056  0.4151535569217254 14.3053357432410788
  3.9884446852590556  0.4152241878252511 14.3054219587914258
  2.6622719956972718  2.8731688839083347 14.6060287748975384
 -0.0002155253752676  4.6645831345341637 15.4489475070068796
