Hg Hf Hg Hf Hg Hf Hg  H 
 1.0000000000000000
     6.3256685523520417    0.0000000000000000    0.0000000000000000
     3.1628347761759850    5.4781896123254992    0.0000000000000000
     0.0000000000000000    0.0000000000000000   25.1648852191590642
 Hg  Hf  Hg  Hf  Hg  Hf  Hg  H  
   1   1   3   1   3   1   2   1
Cartesian
  0.0000000000000000  0.0000000000000000  9.9999991883438799
  1.5814173880879925  2.7390948061627496  9.9999991883438799
  3.1628342761760209  0.0000000000000000  9.9999991883438799
  4.7442516642640129  2.7390948061627496  9.9999991883438799
  6.3256688888481856  3.6521264100430626 12.5824426095795321
  4.7442515007601926  0.9130316038803130 12.5824426095795321
  3.1628346126721647  3.6521264100430626 12.5824426095795321
  1.5814172245841722  0.9130316038803130 12.5824426095795321
  3.1542849247333269  1.8185737939613589 15.5309027686225818
  4.7429870450935603  4.5647372013101153 14.8589661593569069
  6.3082094564916265  1.8279427307910983 15.5394841203067404
  7.9211359119856493  4.5829296883245494 15.5448608748475507
  4.7635999225141017  0.8926760975229692 16.8482390368979686
