Al Rh Al Rh Al Rh Al  H 
 1.0000000000000000
     5.2106036312617299    0.0000000000000000    0.0000000000000000
     1.7394768769026123    4.9116816524155116    0.0000000000000000
     0.0000000000000000    0.0000000000000000   24.2552352835321727
 Al  Rh  Al  Rh  Al  Rh  Al  H  
   1   2   2   2   2   2   1   1
Cartesian
  0.0000000000000000  0.0000000000000000  9.9999993629439743
  0.8697384384513062  2.4558408262077558  9.9999993629439743
  2.6053018156308649  0.0000000000000000  9.9999993629439743
  3.4750402540821712  2.4558408262077558  9.9999993629439743
  5.2106034817049753  3.6823782816671713 12.1276176417660864
  4.3408650432536691  1.2265374554594155 12.1276176417660864
  2.6053016660741104  3.6823782816671713 12.1276176417660864
  1.7355632276228041  1.2265374554594155 12.1276176417660864
  3.4600451815397970  2.4168433656598514 14.3072145502275134
  4.2836717727700675  4.8686903463422144 14.2053664534434336
  6.0649781857952290  2.4450461827678409 14.1592178849225743
  6.9083287866406842  4.9107128821497525 14.3070132317746612
  3.3093166744174840  0.4989567809232809 15.5698348666930109
