Ir Rh Ir Rh Ir Rh  H 
 1.0000000000000000
     5.4749836125523776    0.0000000000000000    0.0000000000000000
    -2.7374918062761888    4.7414746644605330    0.0000000000000000
     0.0000000000000000    0.0000000000000000   24.4703042683124075
 Ir  Rh  Ir  Rh  Ir  Rh  H  
   3   1   3   1   3   1   1
Cartesian
  0.0000000000000000  0.0000000000000000  9.9999992923310419
 -1.3687459031380944  2.3707374322302592  9.9999992923310419
  1.3687459031380944  2.3707374322302592  9.9999992923310419
  2.7374917062761961  0.0000000000000000  9.9999992923310419
  2.7374917062761961  1.5804915881535087 12.2351519341562174
  1.3687459031380944  3.9512290203837681 12.2351519341562174
 -1.3687459031380944  3.9512290203837681 12.2351519341562174
  0.0000000000000000  1.5804915881535087 12.2351519341562174
 -0.0000619999956125  3.1646845760450804 14.4049326806075584
  1.3719208029134167  0.7884505442037986 14.4045786806326088
  4.1030046096430803  0.7884966442005362 14.4045643806336212
  2.7375930062690275  3.1608882763137327 14.5307847717013967
  2.7374790062770948  3.1610018763056940 16.1118021598176924
