Ta Ni Ta Ni Ta Ni  H 
 1.0000000000000000
     5.7317215943838269    0.0000000000000000    0.0000000000000000
    -2.8658607971919134    4.9638166487260795    0.0000000000000000
     0.0000000000000000    0.0000000000000000   24.6799292534778942
 Ta  Ni  Ta  Ni  Ta  Ni  H  
   3   1   3   1   3   1   1
Cartesian
  0.0000000000000000  0.0000000000000000  9.9999992923310419
 -1.4329303985959567  2.4819082243630470  9.9999992923310419
  1.4329303985959567  2.4819082243630470  9.9999992923310419
  2.8658607971919134  0.0000000000000000  9.9999992923310419
  2.8658607971919134  1.6546054829086980 12.3399648267389335
  1.4329303985959567  4.1365138072717382 12.3399648267389335
 -1.4329303985959567  4.1365138072717382 12.3399648267389335
  0.0000000000000000  1.6546054829086980 12.3399648267389335
  0.0001649999883235  3.2699331685969639 14.6286915647728364
  1.3994230009671713  0.8464942400962261 14.6285772647809225
  4.3326857933892544  0.8465263400939544 14.6285992647793677
  2.8659980971821972  3.3087283658515476 14.6302594646618793
  2.8659199971877238  3.3090865658261994 16.1508858570518647
