Os Sn Os Sn Os Sn Os  H 
 1.0000000000000000
     5.6442776005719670    0.0000000000000000    0.0000000000000000
     2.8221388002859835    4.8880876540851856    0.0000000000000000
     0.0000000000000000    0.0000000000000000   24.6085322585304382
 Os  Sn  Os  Sn  Os  Sn  Os  H  
   1   1   3   1   3   1   2   1
Cartesian
  0.0000000000000000  0.0000000000000000  9.9999994550264297
  1.4110694001429918  2.4440438270425928  9.9999994550264297
  2.8221388002859835  0.0000000000000000  9.9999994550264297
  4.2332082004289751  2.4440438270425928  9.9999994550264297
  5.6442776033941060  3.2587251043528198 12.3042661292652191
  4.2332082032511140  0.8146812773102268 12.3042661292652191
  2.8221388031081225  3.2587251043528198 12.3042661292652191
  1.4110694029651305  0.8146812773102268 12.3042661292652191
  2.6798470304506052  1.7085843191436789 14.4952189777885714
  4.3669710406669306  3.9975038192923633 14.8076392075811629
  5.7370000884223282  1.5546707373450741 14.4811430942049491
  7.1730069032196440  4.0285100639900353 14.4808554204628468
  1.3492662678107032  5.7397123353433148 15.3873801760923836
