La Tl La Tl La Tl  H 
 1.0000000000000000
     7.2469524871556326    0.0000000000000000    0.0000000000000000
    -3.6234767435777804    6.2760445558637770    0.0000000000000000
     0.0000000000000000    0.0000000000000000   25.9171101659264345
 La  Tl  La  Tl  La  Tl  H  
   3   1   3   1   3   1   1
Cartesian
  0.0000000000000000  0.0000000000000000  9.9999992923310419
 -1.8117381717889045  3.1380224779318748  9.9999992923310419
  1.8117381717889045  3.1380224779318748  9.9999992923310419
  3.6234762435778163  0.0000000000000000  9.9999992923310419
  3.6234762435778163  2.0920150519545784 12.9585552829632036
  1.8117381717889045  5.2300375298864532 12.9585552829632036
 -1.8117381717889045  5.2300375298864532 12.9585552829632036
  0.0000000000000000  2.0920150519545784 12.9585552829632036
 -0.0009440999331890  4.1064274094008590 15.9296265727096955
  1.7443882765550480  1.0847892232328287 15.9284055727961036
  5.5019793106419757  1.0855838231765973 15.9298574726933566
  3.6217011437034343  4.1849866038414687 15.6545613921752071
  3.6234016435830956  4.1841189039028723 17.5520662578946691
