Al Pt Al Pt Al Pt Al  H 
 1.0000000000000000
     5.3633296204537855    0.0000000000000000    0.0000000000000000
     1.7109178789236441    5.0831156402836601    0.0000000000000000
     0.0000000000000000    0.0000000000000000   24.3532282765975090
 Al  Pt  Al  Pt  Al  Pt  Al  H  
   1   2   2   2   2   2   1   1
Cartesian
  0.0000000000000000  0.0000000000000000  9.9999993806652263
  0.8554589394618221  2.5415578201418301  9.9999993806652263
  2.6816648102268927  0.0000000000000000  9.9999993806652263
  3.5371237496887149  2.5415578201418301  9.9999993806652263
  5.3633292672235537  3.8537558778674885 12.1766141382987545
  4.5078703277617320  1.3121980577256585 12.1766141382987545
  2.6816644569966614  3.8537558778674885 12.1766141382987545
  1.8262055175348397  1.3121980577256585 12.1766141382987545
  3.6253007028228770  2.6143965747819413 14.3717168440042879
  2.7668723199227099  0.0612974999139219 14.2069463352900183
  0.9699215850944716  2.6234759495256501 14.4004666579945741
  0.0974707864552605  0.0603407101400670 14.3717149931589407
  6.0923617502453711  2.4507367763737538 15.9783711554348429
