Hf Re Hf Re Hf Re  H 
 1.0000000000000000
     6.0905015689940791    0.0000000000000000    0.0000000000000000
    -3.0452507844970396    5.2745286267379559    0.0000000000000000
     0.0000000000000000    0.0000000000000000   24.9728722327472283
 Hf  Re  Hf  Re  Hf  Re  H  
   3   1   3   1   3   1   1
Cartesian
  0.0000000000000000  0.0000000000000000  9.9999992923310419
 -1.5226253922485198  2.6372645133689634  9.9999992923310419
  1.5226253922485198  2.6372645133689634  9.9999992923310419
  3.0452506844970468  0.0000000000000000  9.9999992923310419
  3.0452506844970468  1.7581762755793140 12.4864361163736142
  1.5226253922485198  4.3954407889482781 12.4864361163736142
 -1.5226253922485198  4.3954407889482781 12.4864361163736142
  0.0000000000000000  1.7581762755793140 12.4864361163736142
 -0.0001311999907154  3.4619259550102295 14.9787884399975635
  1.4754787955849384  0.9061740358728719 14.9788037399964828
  4.6148978734179797  0.9062750358657244 14.9788889399904530
  3.0455071844788950  3.5163359511598027 14.7796578540894181
  3.0451642845031608  3.5162930511628385 16.5279553303678242
