Cd Cu Cd Cu Cd Cu  H 
 1.0000000000000000
     6.0795965697657923    0.0000000000000000    0.0000000000000000
    -3.0397977848829316    5.2650846274062788    0.0000000000000000
     0.0000000000000000    0.0000000000000000   24.9639682333773365
 Cd  Cu  Cd  Cu  Cd  Cu  H  
   3   1   3   1   3   1   1
Cartesian
  0.0000000000000000  0.0000000000000000  9.9999992923310419
 -1.5198990924414517  2.6325425137031253  9.9999992923310419
  1.5198990924414517  2.6325425137031253  9.9999992923310419
  3.0397981848829034  0.0000000000000000  9.9999992923310419
  3.0397981848829034  1.7550282758020881 12.4819841166886683
  1.5198990924414517  4.3875707895052125 12.4819841166886683
 -1.5198990924414517  4.3875707895052125 12.4819841166886683
  0.0000000000000000  1.7550282758020881 12.4819841166886683
  0.0001106999921661  3.4983723524310308 15.1731666262420237
  1.5098747931508403  0.8831737375005317 15.1731701262417751
  4.5696932766169693  0.8832612374943396 15.1729190262595459
  3.0398410848798676  3.5100010516081035 14.7836834538045387
  3.0398157848816578  3.5100592516039852 16.3169107453027955
