Ag  Y Ag  Y Ag  Y  H 
 1.0000000000000000
     6.2852865552097503    0.0000000000000000    0.0000000000000000
    -3.1426427776049102    5.4432176148003588    0.0000000000000000
     0.0000000000000000    0.0000000000000000   25.1319132214923897
 Ag  Y   Ag  Y   Ag  Y   H  
   3   1   3   1   3   1   1
Cartesian
  0.0000000000000000  0.0000000000000000  9.9999992923310419
 -1.5713215888024410  2.7216088074001794  9.9999992923310419
  1.5713215888024410  2.7216088074001794  9.9999992923310419
  3.1426430776048893  0.0000000000000000  9.9999992923310419
  3.1426430776048893  1.8144058716001197 12.5659566107461949
  1.5713215888024410  4.5360145790003061 12.5659566107461949
 -1.5713215888024410  4.5360145790003061 12.5659566107461949
  0.0000000000000000  1.8144058716001197 12.5659566107461949
 -0.0001347999904606  3.6112232444449228 15.0711191334636059
  1.6039134864960134  0.9197182349143909 15.0614322341491178
  4.6815806686990458  0.9199884348952697 15.0615945341376349
  3.1424786776165230  3.6697439403035945 15.0613905341520713
  0.0004488999682327  5.4120373170068916 15.9729951696406349
