Co Ga Co Ga Co Ga  H 
 1.0000000000000000
     5.0024496459921419    0.0000000000000000    0.0000000000000000
     1.6689838818911833    4.7158246662757035    0.0000000000000000
     0.0000000000000000    0.0000000000000000   24.0849402955834222
 Co  Ga  Co  Ga  Co  Ga  H  
   2   2   2   2   2   2   1
Cartesian
  0.0000000000000000  0.0000000000000000  9.9999992923310419
  3.3357171639416343  2.3579121331378663  9.9999992923310419
  2.5012250229960569  0.0000000000000000  9.9999992923310419
  0.8344921409455774  2.3579121331378663  9.9999992923310419
  5.0024500459921137  3.5360724497631120 12.0424702477917034
  1.6667328820504794  1.1781603166252459 12.0424702477917034
  2.5012250229960569  3.5360724497631120 12.0424702477917034
  4.1679579050465367  1.1781603166252459 12.0424702477917034
  3.3340943640564746  2.3567348332211799 13.9592405121478098
  6.6701902279713101  4.7149901663347586 13.9587885121797974
  5.8358874870123296  2.3568303332144218 14.4658480762967638
  4.1685316050059367  4.7151542663231458 14.1987452951987994
  5.8341425871358101  2.3558548332834546 16.0667858630033606
