 V Mo  V Mo  V Mo  V  H 
 1.0000000000000000
     5.1312916368743942    0.0000000000000000    0.0000000000000000
    -2.5656458184371971    5.2294986299245894    0.0000000000000000
     0.0000000000000000    0.0000000000000000   24.4712992682419923
 V   Mo  V   Mo  V   Mo  V   H  
   1   2   2   2   2   2   1   1
Cartesian
  0.0000000000000000  0.0000000000000000  9.9999993785940831
 -1.2828229092185985  2.6147493149622947  9.9999993785940831
  1.2828229092185985  2.6147493149622947  9.9999993785940831
  2.5656458184371971  0.0000000000000000  9.9999993785940831
  2.5656458158715516  1.2587324079914215 12.2356496341209962
  1.2828229066529531  3.8734817229537160 12.2356496341209962
 -1.2828229117842442  3.8734817229537160 12.2356496341209962
 -0.0000000025656458  1.2587324079914215 12.2356496341209962
 -0.0183433002931654  2.4845510000639277 14.3879574718327721
 -1.2837321843592358  5.1376399763306217 14.5204308682461605
  1.2818368494299066  5.1453278831844687 14.4508968949404135
  2.5819538432155125  2.4846286581185821 14.3879176325575653
  1.2819096701551715  1.6339094938098442 15.4720912611383419
