Nb  Y Nb  Y Nb  Y  H 
 1.0000000000000000
     6.0890425690973284    0.0000000000000000    0.0000000000000000
    -3.0445207845486997    5.8835825836370947    0.0000000000000000
     0.0000000000000000    0.0000000000000000   25.2104352159356324
 Nb  Y   Nb  Y   Nb  Y   H  
   2   2   2   2   2   2   1
Cartesian
  0.0000000000000000  0.0000000000000000  9.9999992923310419
  3.0445211845486710  0.0000000000000000  9.9999992923310419
  1.5222605922743355  2.9417910918185619  9.9999992923310419
 -1.5222605922743355  2.9417910918185619  9.9999992923310419
  3.0445211845486710  1.5754193885124523 12.6052177079678103
  0.0000000000000000  1.5754193885124523 12.6052177079678103
 -1.5222605922743355  4.5172104803310145 12.6052177079678103
  1.5222605922743355  4.5172104803310145 12.6052177079678103
 -0.0037455997349355  3.1100824799091016 14.9687026407113066
  3.0459900844447221  2.9741498895286300 14.8635667481514471
  4.5535076777623740  0.2741480805993900 15.3954885105089918
  1.5332207914987164  0.2743904805822361 15.3940023106141659
 -0.0015382998911393  4.6446300713139239 16.2646692489997662
