Nb  Y Nb  Y Nb  Y Nb  H 
 1.0000000000000000
     6.0890425690973284    0.0000000000000000    0.0000000000000000
    -3.0445207845486997    5.8835825836370947    0.0000000000000000
     0.0000000000000000    0.0000000000000000   25.2104352159356324
 Nb  Y   Nb  Y   Nb  Y   Nb  H  
   1   2   2   2   2   2   1   1
Cartesian
  0.0000000000000000  0.0000000000000000  9.9999991911256831
 -1.5222603922743498  2.9417912918185474  9.9999991911256831
  1.5222608922743144  2.9417912918185474  9.9999991911256831
  3.0445212845486642  0.0000000000000000  9.9999991911256831
  3.0445214184313234  1.5754194791585001 12.6052176079678162
  1.5222610261569738  4.5172107709770470 12.6052176079678162
 -1.5222602583916902  4.5172107709770470 12.6052176079678162
  0.0000001338826595  1.5754194791585001 12.6052176079678162
  0.0020023710977932  2.9926526922121166 14.8600741778695298
  1.5234516114687067  0.2646653197511386 15.3715727064248480
  4.5645041328697857  0.2646639076913185 15.3705526417951415
  3.0413618483448435  2.9798215693883305 14.9766873401104466
  3.0442337589579811  1.5645431707645445 16.3632896387265241
