Re Cd Re Cd Re Cd  H 
 1.0000000000000000
     5.6437136006118793    0.0000000000000000    0.0000000000000000
    -2.8218568003059397    4.8875996541197200    0.0000000000000000
     0.0000000000000000    0.0000000000000000   24.6080712585630650
 Re  Cd  Re  Cd  Re  Cd  H  
   3   1   3   1   3   1   1
Cartesian
  0.0000000000000000  0.0000000000000000  9.9999992923310419
 -1.4109284001529698  2.4437997270598673  9.9999992923310419
  1.4109284001529698  2.4437997270598673  9.9999992923310419
  2.8218568003059397  0.0000000000000000  9.9999992923310419
  2.8218568003059397  1.6291997847065804 12.3040357292815248
  1.4109284001529698  4.0729995117664473 12.3040357292815248
 -1.4109284001529698  4.0729995117664473 12.3040357292815248
  0.0000000000000000  1.6291997847065804 12.3040357292815248
  0.0013467999046911  3.4297333572883999 14.4946925742555290
  1.5594222896445176  0.7288538484212721 14.4943349742808358
  4.0834976110235299  0.7269058485591259 14.4940186743032200
  2.8197225004569773  3.2563027695615450 15.0549175346101443
  0.0003922999722381  1.6293545846956257 15.3957569104899985
