In Ir In Ir In Ir In  H 
 1.0000000000000000
     5.6799735980458719    0.0000000000000000    0.0000000000000000
     2.2720848392115975    5.2057396316059394    0.0000000000000000
     0.0000000000000000    0.0000000000000000   24.7034682518121116
 In  Ir  In  Ir  In  Ir  In  H  
   1   2   2   2   2   2   1   1
Cartesian
  0.0000000000000000  0.0000000000000000  9.9999993978104840
  1.1360424196057988  2.6028698158029697  9.9999993978104840
  2.8399867990229359  0.0000000000000000  9.9999993978104840
  3.9760292186287347  2.6028698158029697  9.9999993978104840
  5.6799734543003755  3.7183407479735289 12.3517341259060558
  4.5439310346945767  1.1154709321705591 12.3517341259060558
  2.8399866552774391  3.7183407479735289 12.3517341259060558
  1.7039442356716403  1.1154709321705591 12.3517341259060558
  3.5789363108302923  2.3432107453312976 14.8316971960632440
  4.5382595742482099  4.9431309161786441 14.6315019197794633
  6.3460038899233018  2.1820698913400762 14.6313300083439017
  7.3471861515883035  4.8096990013091281 14.8789560671885024
  1.5065592051424592  0.9861670230681960 15.6854980458234134
