Ga Sn Ga Sn Ga Sn  H 
 1.0000000000000000
     6.3727185490224585    0.0000000000000000    0.0000000000000000
     2.5490978196082472    5.8406895866725002    0.0000000000000000
     0.0000000000000000    0.0000000000000000   25.2771122112171085
 Ga  Sn  Ga  Sn  Ga  Sn  H  
   2   2   2   2   2   2   1
Cartesian
  0.0000000000000000  0.0000000000000000  9.9999992923310419
  4.4609081843153531  2.9203445933362637  9.9999992923310419
  3.1863594745112152  0.0000000000000000  9.9999992923310419
  1.2745487098041379  2.9203445933362637  9.9999992923310419
  6.3727190490224226  4.1719163047664134 12.6385559056085679
  1.9118108647070702  1.2515717114301488 12.6385559056085679
  3.1863594745112152  4.1719163047664134 12.6385559056085679
  5.0981703392182851  1.2515717114301488 12.6385559056085679
  3.7172778369397683  2.4568638261353613 15.1474886280591736
  8.1932010201925571  5.3498840214052876 15.1449219282408123
  6.9765134062937673  2.4781979246256136 15.6593637918353554
  5.0483175427462132  5.3938259182956561 15.1245988296790141
  6.9657937070523683  2.4744195248929990 17.4374054660088582
