Nb Pd Nb Pd Nb Pd  H 
 1.0000000000000000
     5.6518716000345632    0.0000000000000000    0.0000000000000000
    -2.8259358000172816    5.0226896445598204    0.0000000000000000
     0.0000000000000000    0.0000000000000000   24.6724352540082208
 Nb  Pd  Nb  Pd  Nb  Pd  H  
   2   2   2   2   2   2   1
Cartesian
  0.0000000000000000  0.0000000000000000  9.9999992923310419
  2.8259359000172743  0.0000000000000000  9.9999992923310419
  1.4129679000086408  2.5113450222798961  9.9999992923310419
 -1.4129679000086408  2.5113450222798961  9.9999992923310419
  2.8259359000172743  1.5899673874829356 12.3362178270040967
  0.0000000000000000  1.5899673874829356 12.3362178270040967
 -1.4129679000086408  4.1013125097628240 12.3362178270040967
  1.4129679000086408  4.1013125097628240 12.3362178270040967
  0.0000021999998443  3.2925309669977878 14.6393284640200960
  2.8259369000172039  3.2202817721106394 14.5489928704128637
  4.2456487995485919  0.7776968449648045 14.6334421644366497
  1.4062522004838900  0.7776944449649743 14.6334385644369060
 -0.0000112999992003  3.1679604758132553 16.4508551358239679
