Ru Hf Ru Hf Ru Hf Ru  H 
 1.0000000000000000
     5.5932356041840512    0.0000000000000000    0.0000000000000000
     1.7782178741610322    5.3030396247203209    0.0000000000000000
     0.0000000000000000    0.0000000000000000   24.5375942635505027
 Ru  Hf  Ru  Hf  Ru  Hf  Ru  H  
   1   2   2   2   2   2   1   1
Cartesian
  0.0000000000000000  0.0000000000000000  9.9999993427682874
  0.8891089370805161  2.6515198123601604  9.9999993427682874
  2.7966178020920256  0.0000000000000000  9.9999993427682874
  3.6857267391725417  2.6515198123601604  9.9999993427682874
  5.5932356254138442  4.0237858434705860 12.2687971317752513
  4.7041266883333277  1.3722660311104260 12.2687971317752513
  2.7966178233218182  4.0237858434705860 12.2687971317752513
  1.9075088862413021  1.3722660311104260 12.2687971317752513
  3.7967006451805063  2.7314582453002854 14.4457595144500868
  2.8614120218178818  0.0395832506400960 14.6119092824680514
  0.9471516296313486  2.7004088687519534 14.6119612776302930
  0.0762042566797109  0.0549331958040680 14.4103619244918075
  2.7450934353731156  1.9750038512098185 15.6797723062800269
