Nb Cd Nb Cd Nb Cd Nb  H 
 1.0000000000000000
     5.7302345944890574    0.0000000000000000    0.0000000000000000
    -2.8651167972445641    5.5112596099852382    0.0000000000000000
     0.0000000000000000    0.0000000000000000   24.8950382382552995
 Nb  Cd  Nb  Cd  Nb  Cd  Nb  H  
   1   2   2   2   2   2   1   1
Cartesian
  0.0000000000000000  0.0000000000000000  9.9999992835886431
 -1.4325583986222821  2.7556298049926191  9.9999992835886431
  1.4325588986222466  2.7556298049926191  9.9999992835886431
  2.8651172972445287  0.0000000000000000  9.9999992835886431
  2.8651174323749222  1.4894774642698563 12.4475191191276497
  1.4325590337526402  4.2451072692624754 12.4475191191276497
 -1.4325582634918885  4.2451072692624754 12.4475191191276497
  0.0000001351303934  1.4894774642698563 12.4475191191276497
 -0.0002677281609098  2.8407279411307678 14.7116775130323365
  1.4084416514593945  0.0810349159006101 15.1517748868326496
  4.3214853472822234  0.0810629461669865 15.1517413532161438
  2.8652694332895576  2.7921364162054596 14.8367546413531777
  2.8638672014747715  1.4925530392289874 16.1750312122228515
