Ta Hg Ta Hg Ta Hg Ta  H 
 1.0000000000000000
     5.8726525844105772    0.0000000000000000    0.0000000000000000
    -2.9363257922053241    5.3635416204387818    0.0000000000000000
     0.0000000000000000    0.0000000000000000   24.9144202368836929
 Ta  Hg  Ta  Hg  Ta  Hg  Ta  H  
   1   2   2   2   2   2   1   1
Cartesian
  0.0000000000000000  0.0000000000000000  9.9999994617533048
 -1.4681628961026620  2.6817708102193909  9.9999994617533048
  1.4681633961026266  2.6817708102193909  9.9999994617533048
  2.9363262922052886  0.0000000000000000  9.9999994617533048
  2.9363264449980342  1.6075223934272000 12.4572101184418464
  1.4681635488953719  4.2892932036465909 12.4572101184418464
 -1.4681627433099167  4.2892932036465909 12.4572101184418464
  0.0000001527927452  1.6075223934272000 12.4572101184418464
 -0.0011608012309969  3.1393537795192747 14.8682341239222104
  1.4748870385282764  0.4286293809265151 15.2068695036599788
  4.3953056521190357  0.4415895908116872 15.2136544726375114
  2.9357464480064195  3.0971559602777647 14.7873050112974642
  0.0372062150116206  2.5628602718723950 16.5682144282595623
