Cd Ta Cd Ta Cd Ta Cd  H 
 1.0000000000000000
     5.7448015934581953    0.0000000000000000    0.0000000000000000
    -2.8724007967290976    5.4767966124240779    0.0000000000000000
     0.0000000000000000    0.0000000000000000   24.8912982385199690
 Cd  Ta  Cd  Ta  Cd  Ta  Cd  H  
   1   2   2   2   2   2   1   1
Cartesian
  0.0000000000000000  0.0000000000000000  9.9999992160406492
 -1.4362003983645488  2.7383983062120389  9.9999992160406492
  1.4362003983645488  2.7383983062120389  9.9999992160406492
  2.8724007967290976  0.0000000000000000  9.9999992160406492
  2.8724007938566967  1.5064806081913973 12.4456491192599845
  1.4362003954921478  4.2448789144034365 12.4456491192599845
 -1.4362004012369498  4.2448789144034365 12.4456491192599845
 -0.0000000028724008  1.5064806081913973 12.4456491192599845
  0.0105205097337151  2.9376440300521116 15.1218882756662332
  1.4359215801640119  0.1717768230464766 14.8568012263812221
  4.3083298451351810  0.1881959635435069 14.7471654622032062
  2.8618867326627702  2.9371019805377871 15.1216993756039031
 -1.4373290307028019  4.6532123956215656 16.3811832356073310
