Mo Ta Mo Ta Mo Ta Mo  H 
 1.0000000000000000
     5.5962766039688487    0.0000000000000000    0.0000000000000000
     1.8695198676998730    5.2747706267208310    0.0000000000000000
     0.0000000000000000    0.0000000000000000   24.5705862612157588
 Mo  Ta  Mo  Ta  Mo  Ta  Mo  H  
   1   2   2   2   2   2   1   1
Cartesian
  0.0000000000000000  0.0000000000000000  9.9999992173214789
  0.9347599338499365  2.6373853133604155  9.9999992173214789
  2.7981383019844244  0.0000000000000000  9.9999992173214789
  3.7328982358343610  2.6373853133604155  9.9999992173214789
  5.5962767836496905  3.9539085360034125 12.2852931306078794
  4.6615168497997539  1.3165232226429968 12.2852931306078794
  2.7981384816652666  3.9539085360034125 12.2852931306078794
  1.8633785478153302  1.3165232226429968 12.2852931306078794
  3.7104006437414547  2.6566370551488672 14.5685646880802899
  4.6480356752670033  5.2609264584591688 14.4983392497812495
  6.5393188024932565  2.6432793842568785 14.4998749359931605
  7.4764235954754099  5.2471858181205970 14.5685554249692704
  5.0816693536831536  1.6135143510906191 15.5509197985841965
