Co Hf Co Hf Co Hf Co  H 
 1.0000000000000000
     5.4842156118990575    0.0000000000000000    0.0000000000000000
     1.8091568719715749    5.1772166336244236    0.0000000000000000
     0.0000000000000000    0.0000000000000000   24.4719112681986850
 Co  Hf  Co  Hf  Co  Hf  Co  H  
   1   2   2   2   2   2   1   1
Cartesian
  0.0000000000000000  0.0000000000000000  9.9999994624024335
  0.9045784359857875  2.5886083168122118  9.9999994624024335
  2.7421078059495287  0.0000000000000000  9.9999994624024335
  3.6466862419353161  2.5886083168122118  9.9999994624024335
  5.4842158767622911  3.8929828035455798 12.2359556340993425
  4.5796374407765033  1.3043744867333680 12.2359556340993425
  2.7421080708127619  3.8929828035455798 12.2359556340993425
  1.8375296348269745  1.3043744867333680 12.2359556340993425
  3.7021603011686173  2.5394291283636186 14.2697027522906073
  2.7290050591746344 -0.0096730856721807 14.4862381031470555
  0.9364474571715266  2.6112218140424037 14.4926531210230820
 -0.0280477463052479  0.0684557883558320 14.2697326569661751
  4.5608963683675565  1.2915491025745227 15.2109257169929428
