 V Hf  V Hf  V Hf  V  H 
 1.0000000000000000
     5.6703545987265782    0.0000000000000000    0.0000000000000000
     2.8351767993633246    4.9106706524870569    0.0000000000000000
     0.0000000000000000    0.0000000000000000   24.6298232570237410
 V   Hf  V   Hf  V   Hf  V   H  
   1   1   3   1   3   1   2   1
Cartesian
  0.0000000000000000  0.0000000000000000  9.9999992190835982
  1.4175883996816623  2.4553353262435285  9.9999992190835982
  2.8351772993632891  0.0000000000000000  9.9999992190835982
  4.2527656990449518  2.4553353262435285  9.9999992190835982
  5.6703542682284453  3.2737804366282615 12.3149116285118705
  4.2527658685467831  0.8184451103847330 12.3149116285118705
  2.8351769688651567  3.2737804366282615 12.3149116285118705
  1.4175885691834942  0.8184451103847330 12.3149116285118705
  2.6901022074896037  1.7205460292406398 14.4857092033144799
  4.2503508996377217  4.0934552133190723 14.7384609914341702
  5.8114692041550668  1.7216961377714763 14.4879034496386225
  7.0849357970703881  3.9277533387699628 14.4867236072151435
  1.4170892639032535  2.4551357418561994 15.6558405554520839
