Ta Sn Ta Sn Ta Sn Ta  H 
 1.0000000000000000
     5.9814385767121294    0.0000000000000000    0.0000000000000000
     2.9907197883560297    5.1800776334219600    0.0000000000000000
     0.0000000000000000    0.0000000000000000   24.8838232390489509
 Ta  Sn  Ta  Sn  Ta  Sn  Ta  H  
   1   1   3   1   3   1   2   1
Cartesian
  0.0000000000000000  0.0000000000000000  9.9999994871449793
  1.4953598941780148  2.5900388167109800  9.9999994871449793
  2.9907192883560647  0.0000000000000000  9.9999994871449793
  4.4860791825340796  2.5900388167109800  9.9999994871449793
  5.9814389130361585  3.4533850906746659 12.4419116195244754
  4.4860790188581436  0.8633462739636858 12.4419116195244754
  2.9907196246800942  3.4533850906746659 12.4419116195244754
  1.4953597305020792  0.8633462739636858 12.4419116195244754
  2.9814075818608337  1.7319466592303305 14.7642886832311486
  4.4857991965642743  4.3167537011331074 15.2269215334666299
  5.9901473535837457  1.7319246439003886 14.7643008016530661
  7.4765199523672852  4.3064326709926286 14.7643329764365117
  1.4950162605423287  2.5901480749084240 15.8536698419444466
