Ta Sn Ta Sn Ta Sn Ta  H 
 1.0000000000000000
     5.9814385767121294    0.0000000000000000    0.0000000000000000
     2.9907197883560297    5.1800776334219600    0.0000000000000000
     0.0000000000000000    0.0000000000000000   24.8838232390489509
 Ta  Sn  Ta  Sn  Ta  Sn  Ta  H  
   1   1   3   1   3   1   2   1
Cartesian
  0.0000000000000000  0.0000000000000000  9.9999994871449793
  1.4953598941780148  2.5900388167109800  9.9999994871449793
  2.9907192883560647  0.0000000000000000  9.9999994871449793
  4.4860791825340796  2.5900388167109800  9.9999994871449793
  5.9814389130361585  3.4533850906746659 12.4419116195244754
  4.4860790188581436  0.8633462739636858 12.4419116195244754
  2.9907196246800942  3.4533850906746659 12.4419116195244754
  1.4953597305020792  0.8633462739636858 12.4419116195244754
  2.9539394776210859  1.7479712915502530 14.7693121548151769
  4.4885655579590900  4.3155729956779663 15.1917468558241318
  6.0199404550873119  1.7481915121906826 14.7706190532116910
  7.4775549084380462  4.2725134138673511 14.7706704383066807
  1.4950333239841138  6.0437898436099040 15.8124106713788297
