Cu Al Cu Al Cu Al Cu  H 
 1.0000000000000000
     5.2409436291146623    0.0000000000000000    0.0000000000000000
     2.6204718145573311    4.5387906788038501    0.0000000000000000
     0.0000000000000000    0.0000000000000000   24.2792112818354617
 Cu  Al  Cu  Al  Cu  Al  Cu  H  
   1   1   3   1   3   1   2   1
Cartesian
  0.0000000000000000  0.0000000000000000  9.9999991998167399
  1.3102359072786656  2.2693953394019251  9.9999991998167399
  2.6204718145573311  0.0000000000000000  9.9999991998167399
  3.9307077218359967  2.2693953394019251  9.9999991998167399
  5.2409436317351341  3.0258604540488303 12.1396056409177309
  3.9307077244564685  0.7564651146469052 12.1396056409177309
  2.6204718171778030  3.0258604540488303 12.1396056409177309
  1.3102359098991374  0.7564651146469052 12.1396056409177309
  2.6286587764554690  1.5081467070216055 14.3168304133748538
  3.9306796015529546  3.7822931753466609 14.3135982190937465
  5.2327288613901004  1.5078825902532154 14.3165857517627675
  6.5510437487848412  3.7916323226722977 14.3168987107961883
  1.3098559126608367  2.2699353011738199 15.1703399372772285
