Nb Mo Nb Mo Nb Mo  H 
 1.0000000000000000
     5.3649026203424688    0.0000000000000000    0.0000000000000000
    -2.6824518101711989    5.5048386104396316    0.0000000000000000
     0.0000000000000000    0.0000000000000000   24.6848482531297932
 Nb  Mo  Nb  Mo  Nb  Mo  H  
   2   2   2   2   2   2   1
Cartesian
  0.0000000000000000  0.0000000000000000  9.9999992923310419
  2.6824513101712344  0.0000000000000000  9.9999992923310419
  1.3412257050856136  2.7524194052198090  9.9999992923310419
  4.0236770152568475  2.7524194052198090  9.9999992923310419
  2.6824513101712344  1.3071310074983897 12.3424240265649026
  0.0000000000000000  1.3071310074983897 12.3424240265649026
 -1.3412257050856136  4.0595503127182058 12.3424240265649026
  1.3412257050856136  4.0595503127182058 12.3424240265649026
  0.0088038993769753  2.6435875129215045 14.6947130601006997
  2.6737023107903739  2.6435645129231324 14.6945954601090207
  1.3412540050836108  5.3501843213840363 14.7451356565324474
 -1.3412499050839011  5.3509427213303677 14.6014139667031859
  1.3412142050864275  5.3798466192849279 16.4990690324120166
