Ag Nb Ag Nb Ag Nb Ag  H 
 1.0000000000000000
     5.9715595774112362    0.0000000000000000    0.0000000000000000
     2.9857797887056181    5.1715226340273706    0.0000000000000000
     0.0000000000000000    0.0000000000000000   24.8757562396198288
 Ag  Nb  Ag  Nb  Ag  Nb  Ag  H  
   1   1   3   1   3   1   2   1
Cartesian
  0.0000000000000000  0.0000000000000000  9.9999991821604191
  1.4928898943528091  2.5857613170136853  9.9999991821604191
  2.9857797887056181  0.0000000000000000  9.9999991821604191
  4.4786696830584276  2.5857613170136853  9.9999991821604191
  5.9715595803970158  3.4476817577420880 12.4378781198099144
  4.4786696860442063  0.8619204407284026 12.4378781198099144
  2.9857797916913977  3.4476817577420880 12.4378781198099144
  1.4928898973385887  0.8619204407284026 12.4378781198099144
  3.0023026850044841  1.7142606099196562 14.8622608402903840
  4.4787432825302194  4.3092483215196893 14.6734746714396422
  5.9547684237272538  1.7144513615320125 14.8621698447740602
  7.4640312356743621  4.3289994731648838 14.8620761875518177
  1.4927801132015377  2.5857189725863576 15.7953568499078774
