Co Cu Co Cu Co Cu Co  H 
 1.0000000000000000
     4.9748286479467945    0.0000000000000000    0.0000000000000000
     2.4874138239734327    4.3083276951130021    0.0000000000000000
     0.0000000000000000    0.0000000000000000   24.0619282972119066
 Co  Cu  Co  Cu  Co  Cu  Co  H  
   1   1   3   1   3   1   2   1
Cartesian
  0.0000000000000000  0.0000000000000000  9.9999990923574167
  1.2437069119867163  2.1541638475565010  9.9999990923574167
  2.4874143239733972  0.0000000000000000  9.9999990923574167
  3.7311212359601136  2.1541638475565010  9.9999990923574167
  4.9748283171008989  2.8722184648447771 12.0309641486059533
  3.7311214051141826  0.7180546172882762 12.0309641486059533
  2.4874139931275017  2.8722184648447771 12.0309641486059533
  1.2437070811407853  0.7180546172882762 12.0309641486059533
  2.4810284245552126  1.4396677538445912 14.0750088119002168
  3.7309505993501935  3.5900783500295619 14.1804965942983348
  4.9809664319066806  1.4397414865647653 14.0751113157147643
  6.2184612367695387  3.5835010501704732 14.0746268047265701
  1.2435128836776481  2.1545269620313006 15.0807839159819004
