Ag Nb Ag Nb Ag Nb Ag  H 
 1.0000000000000000
     5.9715595774112362    0.0000000000000000    0.0000000000000000
     2.9857797887056181    5.1715226340273706    0.0000000000000000
     0.0000000000000000    0.0000000000000000   24.8757562396198288
 Ag  Nb  Ag  Nb  Ag  Nb  Ag  H  
   1   1   3   1   3   1   2   1
Cartesian
  0.0000000000000000  0.0000000000000000  9.9999991821604191
  1.4928898943528091  2.5857613170136853  9.9999991821604191
  2.9857797887056181  0.0000000000000000  9.9999991821604191
  4.4786696830584276  2.5857613170136853  9.9999991821604191
  5.9715595803970158  3.4476817577420880 12.4378781198099144
  4.4786696860442063  0.8619204407284026 12.4378781198099144
  2.9857797916913977  3.4476817577420880 12.4378781198099144
  1.4928898973385887  0.8619204407284026 12.4378781198099144
  2.9219944257905102  1.7605898764398829 14.8664774053517821
  4.4781198158809801  4.3100833879654967 14.7279008609071873
  6.0349455385355686  1.7607809331720743 14.8667419341436347
  7.4642227226895521  4.2357705780646464 14.8661596921930901
  4.4786050468975613  0.8615030833372688 15.3918668349166801
