Zr Hg Zr Hg Zr Hg Zr  H 
 1.0000000000000000
     6.3066565536974615    0.0000000000000000    0.0000000000000000
     3.1533277768487662    5.4617246134906763    0.0000000000000000
     0.0000000000000000    0.0000000000000000   25.1493622202575757
 Zr  Hg  Zr  Hg  Zr  Hg  Zr  H  
   1   1   3   1   3   1   2   1
Cartesian
  0.0000000000000000  0.0000000000000000  9.9999994093291686
  1.5766638884243831  2.7308623067453381  9.9999994093291686
  3.1533282768487307  0.0000000000000000  9.9999994093291686
  4.7299921652731136  2.7308623067453381  9.9999994093291686
  6.3066562235174803  3.6411497441476923 12.5746811101287879
  4.7299923350930975  0.9102874374023542 12.5746811101287879
  3.1533279466687492  3.6411497441476923 12.5746811101287879
  1.5766640582443658  0.9102874374023542 12.5746811101287879
  3.1765611751093754  1.8071489889794916 15.1215767141248918
  4.7300768074158510  4.5509414044217067 15.1986634074811242
  6.2827356687979234  1.8072193633011366 15.1217446364164374
  7.8828215708375664  4.5798087818469515 15.1223390918912362
  4.7298967482913410  0.9098690747586855 16.2505595502830431
