 Y Pt  Y Pt  Y Pt  Y  H 
 1.0000000000000000
     6.0811175696581561    0.0000000000000000    0.0000000000000000
     2.0268248565678864    5.7334085942644428    0.0000000000000000
     0.0000000000000000    0.0000000000000000   24.9651442332941151
 Y   Pt  Y   Pt  Y   Pt  Y   H  
   1   2   2   2   2   2   1   1
Cartesian
  0.0000000000000000  0.0000000000000000  9.9999992034981418
  1.0134124282839432  2.8667042971322214  9.9999992034981418
  3.0405587848290780  0.0000000000000000  9.9999992034981418
  4.0539712131130212  2.8667042971322214  9.9999992034981418
  6.0811178028664052  4.3001702825259711 12.4825721166470576
  5.0677053745824612  1.4334659853937499 12.4825721166470576
  3.0405590180373268  4.3001702825259711 12.4825721166470576
  2.0271465897533836  1.4334659853937499 12.4825721166470576
  4.0485333801879415  2.8612356802804744 14.9701884383036941
  5.1420810159258750  5.6361509954564539 14.8036541496906988
  7.0262760006147627  2.9716789779069614 14.8049183596295268
  6.0932015483594864  0.0069556337047554 14.9717559747449585
  2.0278379363987198  1.4328533420184097 14.9958328591464305
