Zr Mo Zr Mo Zr Mo Zr  H 
 1.0000000000000000
     5.7989985896228422    0.0000000000000000    0.0000000000000000
     1.9309558633522379    5.4680696130416599    0.0000000000000000
     0.0000000000000000    0.0000000000000000   24.7342332496349719
 Zr  Mo  Zr  Mo  Zr  Mo  Zr  H  
   1   2   2   2   2   2   1   1
Cartesian
  0.0000000000000000  0.0000000000000000  9.9999991792934271
  0.9654779316761190  2.7340348065208300  9.9999991792934271
  2.8994992948114211  0.0000000000000000  9.9999991792934271
  3.8649772264875399  2.7340348065208300  9.9999991792934271
  5.7989984655306568  4.1021363694114923 12.3671166248174860
  4.8335205338545375  1.3681015628906625 12.3671166248174860
  2.8994991707192348  4.1021363694114923 12.3671166248174860
  1.9340212390431160  1.3681015628906625 12.3671166248174860
  3.8727235445499542  2.7395008201396971 14.7043381736262102
  2.8842298317138448 -0.0490197294256357 14.6935457619612304
  0.9141916677374918  2.7358492705924555 14.6933521918518206
 -0.0196781307768827 -0.0136686265689037 14.7163599014179294
  1.6741934187249203  1.1843735325971156 15.6530572612162668
