Zn Os Zn Os Zn Os Zn  H 
 1.0000000000000000
     5.3156386238287290    0.0000000000000000    0.0000000000000000
    -2.6578188119143999    4.8974876534199767    0.0000000000000000
     0.0000000000000000    0.0000000000000000   24.4647782687034656
 Zn  Os  Zn  Os  Zn  Os  Zn  H  
   1   2   2   2   2   2   1   1
Cartesian
  0.0000000000000000  0.0000000000000000  9.9999994261544138
 -1.3289094059572000  2.4487438267099884  9.9999994261544138
  1.3289099059571645  2.4487438267099884  9.9999994261544138
  0.0000004999999645  4.8974876534199767  9.9999994261544138
  2.6578194565129598  1.4423730417510421 12.2323891343517328
  1.3289100505557596  3.8911168684610300 12.2323891343517328
 -1.3289092613586053  3.8911168684610300 12.2323891343517328
  0.0000001445985947  1.4423730417510421 12.2323891343517328
 -0.0006026789588733  2.7352065579066447 14.5542767262140842
  1.3911138452437288  0.2739502673256126 14.3857689114687002
  3.9241716900253900  0.2735140872802237 14.3854868570400392
  2.6576565223088355  2.7513926321640065 14.5779613227037981
  2.6578404009156835  5.1728357714666036 15.5833110737958940
