Zn Cd Zn Cd Zn Cd Zn  H 
 1.0000000000000000
     5.8696355846240804    0.0000000000000000    0.0000000000000000
     2.9348177923120402    5.0832536402738944    0.0000000000000000
     0.0000000000000000    0.0000000000000000   24.7925352455091179
 Zn  Cd  Zn  Cd  Zn  Cd  Zn  H  
   1   1   3   1   3   1   2   1
Cartesian
  0.0000000000000000  0.0000000000000000  9.9999991267416384
  1.4674088961560201  2.5416268201369472  9.9999991267416384
  2.9348177923120402  0.0000000000000000  9.9999991267416384
  4.4022266884680601  2.5416268201369472  9.9999991267416384
  5.8696355875588981  3.3888357618770142 12.3962676227545590
  4.4022266914028778  0.8472089417400669 12.3962676227545590
  2.9348177952468579  3.3888357618770142 12.3962676227545590
  1.4674088990908378  0.8472089417400669 12.3962676227545590
  2.9712535816169545  1.6730907115883416 14.8704488425195933
  4.4011100489944415  4.2371747007348066 15.0599950138918004
  5.8326039069797977  1.6726453931531855 14.8703973732164219
  7.3368659910316074  4.2774269631771871 14.8709302887615262
  1.4674931987971043  2.5429031183776933 15.6565734260182854
