Cu Zn Cu Zn Cu Zn Cu  H 
 1.0000000000000000
     5.2159956308801538    0.0000000000000000    0.0000000000000000
     2.2528788405707467    4.7043756670859134    0.0000000000000000
     0.0000000000000000    0.0000000000000000   24.3183142790682645
 Cu  Zn  Cu  Zn  Cu  Zn  Cu  H  
   1   2   2   2   2   2   1   1
Cartesian
  0.0000000000000000  0.0000000000000000  9.9999993580061286
  1.1264394202853734  2.3521878335429567  9.9999993580061286
  2.6079978154400769  0.0000000000000000  9.9999993580061286
  3.7344372357254505  2.3521878335429567  9.9999993580061286
  5.2159960239923766  3.2853684807103027 12.1591571395341322
  4.0895566037070035  0.9331806471673456 12.1591571395341322
  2.6079982085522997  3.2853684807103027 12.1591571395341322
  1.4815587882669261  0.9331806471673456 12.1591571395341322
  2.9324828136442362  1.8555104589791551 14.3527041058786509
  4.0214411836635851  4.1755864029848588 14.4645116412534680
  5.5605199619773682  1.8596194488618147 14.3967846739382903
  6.6741390126389177  4.1956736307588764 14.3530295821969638
  3.2665534258364435  0.4147796183449798 15.2654855636718807
