Fe Zn Fe Zn Fe Zn  H 
 1.0000000000000000
     5.1526826353606188    0.0000000000000000    0.0000000000000000
    -2.5763418176802739    4.6720246693752934    0.0000000000000000
     0.0000000000000000    0.0000000000000000   24.2984412804746164
 Fe  Zn  Fe  Zn  Fe  Zn  H  
   2   2   2   2   2   2   1
Cartesian
  0.0000000000000000  0.0000000000000000  9.9999992923310419
  2.5763415176802953  0.0000000000000000  9.9999992923310419
  1.2881708088401440  2.3360121346876612  9.9999992923310419
 -1.2881708088401440  2.3360121346876612  9.9999992923310419
  2.5763415176802953  1.4206979994616056 12.1492207402373023
  0.0000000000000000  1.4206979994616056 12.1492207402373023
 -1.2881708088401440  3.7567101341492664 12.1492207402373023
  1.2881708088401440  3.7567101341492664 12.1492207402373023
 -0.0005047999642769  2.8444284987086106 14.2266119932267614
  2.5761364176948094  2.8246966001049758 14.2389951923504405
  3.8651313264766345  0.5164238634542837 14.4632464764808706
  1.2875492088841329  0.5164765634505543 14.4632246764824153
 -0.0000607999956974  2.8271184999335857 15.7919326824538668
