Ru Pt Ru Pt Ru Pt Ru  H 
 1.0000000000000000
     5.4540536140335290    0.0000000000000000    0.0000000000000000
     2.7270268070167645    4.7233486657432531    0.0000000000000000
     0.0000000000000000    0.0000000000000000   24.4532142695218120
 Ru  Pt  Ru  Pt  Ru  Pt  Ru  H  
   1   1   3   1   3   1   2   1
Cartesian
  0.0000000000000000  0.0000000000000000  9.9999992421092543
  1.3635134035083822  2.3616743328716265  9.9999992421092543
  2.7270268070167645  0.0000000000000000  9.9999992421092543
  4.0905402105251465  2.3616743328716265  9.9999992421092543
  5.4540536167605556  3.1488991120699517 12.2266071347609060
  4.0905402132521731  0.7872247791983250 12.2266071347609060
  2.7270268097437911  3.1488991120699517 12.2266071347609060
  1.3635134062354091  0.7872247791983250 12.2266071347609060
  2.6807192248014022  1.6010794391996119 14.3679514131783037
  4.1155490452561398  3.9216200131573982 14.4172380647460248
  5.5249115877763293  1.6173306587458496 14.4003779647586168
  6.8159373735923054  3.8531654608911654 14.4003913162136090
  2.7025406860571133  4.7375776685785285 15.4094436173854312
