Ir Sc Ir Sc Ir Sc  H 
 1.0000000000000000
     5.5921536042606208    0.0000000000000000    0.0000000000000000
    -2.7960768021303104    4.8429476572796037    0.0000000000000000
     0.0000000000000000    0.0000000000000000   24.5659732615422080
 Ir  Sc  Ir  Sc  Ir  Sc  H  
   3   1   3   1   3   1   1
Cartesian
  0.0000000000000000  0.0000000000000000  9.9999992923310419
 -1.3980385010651482  2.4214737286398091  9.9999992923310419
  1.3980385010651482  2.4214737286398091  9.9999992923310419
  0.0000000000000000  4.8429473572796242  9.9999992923310419
  2.7960770021302963  1.6143157857598749 12.2829865307711099
  1.3980385010651482  4.0357895143996840 12.2829865307711099
 -1.3980385010651482  4.0357895143996840 12.2829865307711099
  0.0000000000000000  1.6143157857598749 12.2829865307711099
 -0.0000659999953294  3.2467725702359678 14.4889827746595934
  1.4138328999474272  0.7980635435235164 14.4888481746691191
  4.1782009043216712  0.7980659435233466 14.4889743746601862
  2.7961777021231700  3.2285426715260410 14.5951079671494437
 -0.0000339999975939  1.6143302857588488 15.4471711068515756
