Nb Hf Nb Hf Nb Hf  H 
 1.0000000000000000
     5.8861385834562148    0.0000000000000000    0.0000000000000000
    -2.9430697917280719    5.5398446079623662    0.0000000000000000
     0.0000000000000000    0.0000000000000000   24.9868062317611610
 Nb  Hf  Nb  Hf  Nb  Hf  H  
   2   2   2   2   2   2   1
Cartesian
  0.0000000000000000  0.0000000000000000  9.9999992923310419
  2.9430692917281074  0.0000000000000000  9.9999992923310419
  1.4715346958640501  2.7699223039811831  9.9999992923310419
 -1.4715346958640501  2.7699223039811831  9.9999992923310419
  2.9430692917281074  1.5635197893545500 12.4934031158805805
  0.0000000000000000  1.5635197893545500 12.4934031158805805
 -1.4715346958640501  4.3334421933357268 12.4934031158805805
  1.4715346958640501  4.3334421933357268 12.4934031158805805
  0.0255951981887071  3.0302858855560593 14.8011645525674549
  2.9197328933795523  3.0319451854386359 14.7981410527814194
  4.4190835872751508  0.3102669780433676 15.0560647345289613
  1.4745869956480482  0.3492441752850721 14.9956997388008038
  4.4132247876897592  2.2573652402532578 15.9597707705764851
