Ag Ru Ag Ru Ag Ru Ag  H 
 1.0000000000000000
     5.7988265896350137    0.0000000000000000    0.0000000000000000
     2.8994127948175423    5.0219306446135326    0.0000000000000000
     0.0000000000000000    0.0000000000000000   24.7347202496005067
 Ag  Ru  Ag  Ru  Ag  Ru  Ag  H  
   1   1   3   1   3   1   2   1
Cartesian
  0.0000000000000000  0.0000000000000000  9.9999991839957794
  1.4497063974087712  2.5109653223067663  9.9999991839957794
  2.8994132948175069  0.0000000000000000  9.9999991839957794
  4.3491196922262780  2.5109653223067663  9.9999991839957794
  5.7988262592011166  3.3479537647496653 12.3673601248002534
  4.3491198617923459  0.8369884424428989 12.3673601248002534
  2.8994129643836102  3.3479537647496653 12.3673601248002534
  1.4497065669748390  0.8369884424428989 12.3673601248002534
  2.8830320944711549  1.6833374572695883 14.8312780177778123
  4.3494890732291935  4.1844534126390629 14.6244508877086190
  5.8148674318843474  1.6833821072549493 14.8310449177741788
  7.2480821548126242  4.1664458239529143 14.8314701076152708
  4.3488552149566635  0.8368657566772510 15.6533727311078898
