Pd Nb Pd Nb Pd Nb  H 
 1.0000000000000000
     5.6546005998414408    0.0000000000000000    0.0000000000000000
    -2.8273007999206845    4.8970276534525299    0.0000000000000000
     0.0000000000000000    0.0000000000000000   24.6169612579339443
 Pd  Nb  Pd  Nb  Pd  Nb  H  
   3   1   3   1   3   1   1
Cartesian
  0.0000000000000000  0.0000000000000000  9.9999992923310419
 -1.4136501999603566  2.4485140267262508  9.9999992923310419
  1.4136501999603566  2.4485140267262508  9.9999992923310419
  0.0000000000000000  4.8970279534525085  9.9999992923310419
  2.8273003999207131  1.6323426844841671 12.3084804289669876
  1.4136501999603566  4.0808566112104243 12.3084804289669876
 -1.4136501999603566  4.0808566112104243 12.3084804289669876
  0.0000000000000000  1.6323426844841671 12.3084804289669876
 -0.0000094999993277  3.2441209704236131 14.6237116651252474
  1.4000372009237063  0.8200141419701406 14.6307364646281250
  4.2545925989156670  0.8200428419681096 14.6307302646285642
  2.8272900999214419  3.2626235691142416 14.4952979742126864
  0.0001470999895902  1.6237567850917647 15.5612225987805033
