Sc Re Sc Re Sc Re Sc  H 
 1.0000000000000000
     6.0760995700132652    0.0000000000000000    0.0000000000000000
     3.0380497850066326    5.2620566276205611    0.0000000000000000
     0.0000000000000000    0.0000000000000000   24.9611132335793755
 Sc  Re  Sc  Re  Sc  Re  Sc  H  
   1   1   3   1   3   1   2   1
Cartesian
  0.0000000000000000  0.0000000000000000  9.9999994616876702
  1.5190248925033163  2.6310283138102806  9.9999994616876702
  3.0380497850066326  0.0000000000000000  9.9999994616876702
  4.5570746775099487  2.6310283138102806  9.9999994616876702
  6.0760995730513141  3.5080377535010596 12.4805566167896878
  4.5570746805479985  0.8770094396907790 12.4805566167896878
  3.0380497880446820  3.5080377535010596 12.4805566167896878
  1.5190248955413659  0.8770094396907790 12.4805566167896878
  3.0388206384927319  1.7533165684696395 14.9926944475492636
  4.5569814063434997  4.3852920945693450 14.5480152106266356
  6.0745650996756542  1.7540019671315570 14.9924289861100259
  7.5953500285989684  4.3861441899231686 14.9924635822129666
  1.5187206925783436  2.6312576763345654 16.1034586198042007
