Ta  V Ta  V Ta  V Ta  H 
 1.0000000000000000
     5.8583435854231807    0.0000000000000000    0.0000000000000000
     2.9291717927115903    5.0734736409659940    0.0000000000000000
     0.0000000000000000    0.0000000000000000   24.7833162461615188
 Ta  V   Ta  V   Ta  V   Ta  H  
   1   1   3   1   3   1   2   1
Cartesian
  0.0000000000000000  0.0000000000000000  9.9999994803234884
  1.4645858963557952  2.5367368204829970  9.9999994803234884
  2.9291717927115903  0.0000000000000000  9.9999994803234884
  4.3937576890673853  2.5367368204829970  9.9999994803234884
  5.8583435883523522  3.3823157623351539 12.3916581230807594
  4.3937576919965569  0.8455789418521569 12.3916581230807594
  2.9291717956407619  3.3823157623351539 12.3916581230807594
  1.4645858992849667  0.8455789418521569 12.3916581230807594
  2.9774486974210790  1.6625555570895836 14.7890136819602205
  4.3931969049860147  4.2279400813355554 14.5598871648677388
  5.8082382653181348  1.6629655698618784 14.7888003719572900
  7.3222999324605986  4.2848402957057159 14.7885155125203571
  1.4638338402855320  2.5370627657970610 15.8705568098765895
