Sc Hf Sc Hf Sc Hf Sc  H 
 1.0000000000000000
     6.3215685526421854    0.0000000000000000    0.0000000000000000
    -3.1607847763210573    5.5589216066123459    0.0000000000000000
     0.0000000000000000    0.0000000000000000   25.2002252166581648
 Sc  Hf  Sc  Hf  Sc  Hf  Sc  H  
   1   2   2   2   2   2   1   1
Cartesian
  0.0000000000000000  0.0000000000000000  9.9999994616862153
 -1.5803923881605286  2.7794608033061730  9.9999994616862153
  1.5803918881605641  2.7794608033061730  9.9999994616862153
  3.1607842763210927  0.0000000000000000  9.9999994616862153
  3.1607841146699922  1.7972117184594247 12.6001126083290824
  1.5803917265094642  4.5766725217655972 12.6001126083290824
 -1.5803925498116289  4.5766725217655972 12.6001126083290824
 -0.0000001616511007  1.7972117184594247 12.6001126083290824
 -0.0000337504854366  3.6154307517611208 15.1782618434785146
  1.6135482973969923  0.7733943964509874 15.0553123890682876
  4.7080737925564282  0.7734017119918217 15.0553795476684904
  3.1607193188992770  3.5859955391942995 15.1123593233018223
 -0.0001491508186411  5.5141542378606596 16.2301091387315140
