Mn Cu Mn Cu Mn Cu Mn  H 
 1.0000000000000000
     5.2193376306436514    0.0000000000000000    0.0000000000000000
     1.7893108733760150    4.9030456530266546    0.0000000000000000
     0.0000000000000000    0.0000000000000000   24.2757482820805279
 Mn  Cu  Mn  Cu  Mn  Cu  Mn  H  
   1   2   2   2   2   2   1   1
Cartesian
  0.0000000000000000  0.0000000000000000  9.9999994655512801
  0.8946554366880075  2.4515228265133273  9.9999994655512801
  2.6096688153218257  0.0000000000000000  9.9999994655512801
  3.5043242520098330  2.4515228265133273  9.9999994655512801
  5.2193373800429708  3.6512958865353604 12.1378741410402640
  4.3246819433549630  1.1997730600220329 12.1378741410402640
  2.6096685647211446  3.6512958865353604 12.1378741410402640
  1.7150131280331369  1.1997730600220329 12.1378741410402640
  3.4803877416162048  2.3820261993943381 14.1837520571218256
  4.3169113914697377  4.8453008467537115 14.1367790425382100
  6.1047191011162338  2.4455060589432613 14.1994643409914154
  6.9363318300981067  4.9052355248218946 14.1839192684759894
  4.7288412999321885  1.4827648475559272 15.0767484452034868
