Mo Mn Mo Mn Mo Mn  H 
 1.0000000000000000
     5.5631696063117291    0.0000000000000000    0.0000000000000000
    -2.7815848031558645    4.8178456590559948    0.0000000000000000
     0.0000000000000000    0.0000000000000000   24.5423072632169763
 Mo  Mn  Mo  Mn  Mo  Mn  H  
   3   1   3   1   3   1   1
Cartesian
  0.0000000000000000  0.0000000000000000  9.9999992923310419
 -1.3907923015779393  2.4089229295279901  9.9999992923310419
  1.3907923015779393  2.4089229295279901  9.9999992923310419
  2.7815846031558786  0.0000000000000000  9.9999992923310419
  2.7815846031558786  1.6059485863519956 12.2711536316084882
  1.3907923015779393  4.0148715158799853 12.2711536316084882
 -1.3907923015779393  4.0148715158799853 12.2711536316084882
  0.0000000000000000  1.6059485863519956 12.2711536316084882
  0.0010028999290279  2.8297781997453666 14.4293964788763311
  1.3863032018956190  0.5227371630075111 14.4660179762847410
  4.1794422042338288  0.5231517629781710 14.4665818762448364
  2.7821972031125264  2.9552870908634916 14.6491594633243860
  0.0004691999667962  4.5230636799168007 15.5787505975401022
