Sn Hf Sn Hf Sn Hf Sn  H 
 1.0000000000000000
     6.2437985581457269    0.0000000000000000    0.0000000000000000
     2.9405137919089519    5.5080306102137442    0.0000000000000000
     0.0000000000000000    0.0000000000000000   25.1394382209598710
 Sn  Hf  Sn  Hf  Sn  Hf  Sn  H  
   1   2   2   2   2   2   1   1
Cartesian
  0.0000000000000000  0.0000000000000000  9.9999993972411954
  1.4702568959544760  2.7540153051068721  9.9999993972411954
  3.1218992790728635  0.0000000000000000  9.9999993972411954
  4.5921561750273394  2.7540153051068721  9.9999993972411954
  6.2437987648237199  3.7445410619619302 12.5697191104799355
  4.7735418688692439  0.9905257568550581 12.5697191104799355
  3.1218994857508564  3.7445410619619302 12.5697191104799355
  1.6516425897963809  0.9905257568550581 12.5697191104799355
  3.2334373875332729  1.9599308216184250 15.3443224044629787
  4.6952568866086537  4.6884631239625927 14.9948992214362562
  6.3515075289867209  1.9370905278782558 15.1387958825861748
  7.8436606047236772  4.6838211595614370 15.3440981858134862
  5.8534800309063133  1.6387317461054220 16.9135194008458534
