 Y Pt  Y Pt  Y Pt  Y  H 
 1.0000000000000000
     6.6159685318084112    0.0000000000000000    0.0000000000000000
     3.3079847659041701    5.7295965945342067    0.0000000000000000
     0.0000000000000000    0.0000000000000000   25.4019142023852567
 Y   Pt  Y   Pt  Y   Pt  Y   H  
   1   1   3   1   3   1   2   1
Cartesian
  0.0000000000000000  0.0000000000000000  9.9999992267375699
  1.6539923829520851  2.8647982972671033  9.9999992267375699
  3.3079842659042056  0.0000000000000000  9.9999992267375699
  4.9619766488562904  2.8647982972671033  9.9999992267375699
  6.6159688684497047  3.8197310649326699 12.7009571011926283
  4.9619764854976198  0.9549327676655666 12.7009571011926283
  3.3079846025454995  3.8197310649326699 12.7009571011926283
  1.6539922195934147  0.9549327676655666 12.7009571011926283
  3.3491277192821198  1.8816437484011466 15.4234033185365664
  4.9625465462991647  4.7741377009317505 14.9215204771422130
  6.5691445366566512  1.8892751757229012 15.4226097373349695
  8.2735341322786855  4.8253406477001635 15.4220998447111874
  4.9617918437677115  0.9552520379766039 16.6602528509362600
