Ni Re Ni Re Ni Re Ni  H 
 1.0000000000000000
     5.2357336294833576    0.0000000000000000    0.0000000000000000
    -2.6178668147416788    4.6158656733494912    0.0000000000000000
     0.0000000000000000    0.0000000000000000   24.3122412794980320
 Ni  Re  Ni  Re  Ni  Re  Ni  H  
   1   2   2   2   2   2   1   1
Cartesian
  0.0000000000000000  0.0000000000000000  9.9999991738365210
 -1.3089334073708394  2.3079328366747456  9.9999991738365210
  1.3089334073708394  2.3079328366747456  9.9999991738365210
  2.6178668147416788  0.0000000000000000  9.9999991738365210
  2.6178668121238120  1.4847109141411838 12.1561206397490160
  1.3089334047529726  3.7926437508159294 12.1561206397490160
 -1.3089334099887062  3.7926437508159294 12.1561206397490160
 -0.0000000026178667  1.4847109141411838 12.1561206397490160
  0.0000837272343357  3.0329621318872637 14.2715393049908545
  1.3515356687498943  0.6847374037498500 14.2649353708921058
  3.8840793844560895  0.6847608846585302 14.2648824431428380
  2.6177912002766019  3.0223279112985084 14.2325533375503941
 -0.0000749364375721  1.4745842033673480 15.3434710556378668
