Pt Ag Pt Ag Pt Ag Pt  H 
 1.0000000000000000
     5.6840795977553027    0.0000000000000000    0.0000000000000000
     2.8420397988776513    4.9225566516459223    0.0000000000000000
     0.0000000000000000    0.0000000000000000   24.6410292562307305
 Pt  Ag  Pt  Ag  Pt  Ag  Pt  H  
   1   1   3   1   3   1   2   1
Cartesian
  0.0000000000000000  0.0000000000000000  9.9999990950202342
  1.4210198994388257  2.4612783258229611  9.9999990950202342
  2.8420397988776513  0.0000000000000000  9.9999990950202342
  4.2630596983164768  2.4612783258229611  9.9999990950202342
  5.6840796005973422  3.2817044360714669 12.3205146281153652
  4.2630597011585163  0.8204261102485059 12.3205146281153652
  2.8420398017196913  3.2817044360714669 12.3205146281153652
  1.4210199022808654  0.8204261102485059 12.3205146281153652
  2.7955895373513124  1.6675660149274005 14.5859067249435803
  4.2567388085450668  4.1058529738148346 14.9068903573956248
  5.6710250772986104  1.6712717254198728 14.6465055703984355
  7.0722177503902675  4.0982110787274593 14.6466024835665003
  2.1161957712094637  5.3417573427013689 15.6787735804115922
