Nb  W Nb  W Nb  W  H 
 1.0000000000000000
     5.9133665815293739    0.0000000000000000    0.0000000000000000
    -2.9566837907646515    5.1211256375938099    0.0000000000000000
     0.0000000000000000    0.0000000000000000   24.8282422429822454
 Nb  W   Nb  W   Nb  W   H  
   3   1   3   1   3   1   1
Cartesian
  0.0000000000000000  0.0000000000000000  9.9999992923310419
 -1.4783417953823328  2.5605630187968909  9.9999992923310419
  1.4783417953823328  2.5605630187968909  9.9999992923310419
  2.9566834907646729  0.0000000000000000  9.9999992923310419
  2.9566834907646729  1.7070419791979297 12.4141213214911073
  1.4783417953823328  4.2676050979948137 12.4141213214911073
 -1.4783417953823328  4.2676050979948137 12.4141213214911073
  0.0000000000000000  1.7070419791979297 12.4141213214911073
 -0.0000583999958672  3.3924666599256486 14.8500878491053054
  1.4596196967072377  0.8643408388332776 14.8501904490980454
  4.4537167848242669  0.8643798388305177 14.8499943491119222
  2.9563446907886486  3.4141726583895822 14.9908801391418720
  2.9567688907586289  3.4140714583967440 16.7414293152609339
