Zn La Zn La Zn La  H 
 1.0000000000000000
     6.3961625473633994    0.0000000000000000    0.0000000000000000
    -3.1980817736816642    5.5392396080051807    0.0000000000000000
     0.0000000000000000    0.0000000000000000   25.2224442150857939
 Zn  La  Zn  La  Zn  La  H  
   3   1   3   1   3   1   1
Cartesian
  0.0000000000000000  0.0000000000000000  9.9999992923310419
 -1.5990406868408464  2.7696198040025903  9.9999992923310419
  1.5990406868408464  2.7696198040025903  9.9999992923310419
  3.1980814736816856  0.0000000000000000  9.9999992923310419
  3.1980814736816856  1.8464131693350625 12.6112219075429106
  1.5990406868408464  4.6160329733376519 12.6112219075429106
 -1.5990406868408464  4.6160329733376519 12.6112219075429106
  0.0000000000000000  1.8464131693350625 12.6112219075429106
 -0.0000488999965395  3.9748167187145396 14.8700408476932946
  1.8429362695811118  0.7825038446246281 14.8702896476756870
  4.5531415777882813  0.7824454446287609 14.8702622476776263
  3.1980323736851601  3.6929582386607906 15.5430627000656241
  3.1980778736819406  3.6927318386768127 17.6192829531379509
