Rh Os Rh Os Rh Os Rh  H 
 1.0000000000000000
     5.3981916179867095    0.0000000000000000    0.0000000000000000
    -2.6990958089933548    4.7576086633187797    0.0000000000000000
     0.0000000000000000    0.0000000000000000   24.4453882700756324
 Rh  Os  Rh  Os  Rh  Os  Rh  H  
   1   2   2   2   2   2   1   1
Cartesian
  0.0000000000000000  0.0000000000000000  9.9999992599938032
 -1.3495479044966774  2.3788043316593899  9.9999992599938032
  1.3495479044966774  2.3788043316593899  9.9999992599938032
  2.6990958089933548  0.0000000000000000  9.9999992599938032
  2.6990958116924508  1.5312559448792333 12.2226941350378162
  1.3495479071957730  3.9100602765386236 12.2226941350378162
 -1.3495479017975818  3.9100602765386236 12.2226941350378162
  0.0000000026990958  1.5312559448792333 12.2226941350378162
  0.0000362299630441  3.0814615449742475 14.3823867909273417
  1.3119697619896382  0.6573520569944973 14.3704211400499631
  4.0863098141312948  0.6573264896055405 14.3704497900450150
  2.6991385680691611  3.1003457545252555 14.3763723453789236
 -0.0000591263927916  4.7932351118483965 15.4783753865623623
