Rh La Rh La Rh La Rh  H 
 1.0000000000000000
     5.8906325831381885    0.0000000000000000    0.0000000000000000
     2.9453157915691297    5.1014376389870684    0.0000000000000000
     0.0000000000000000    0.0000000000000000   24.8096802442958193
 Rh  La  Rh  La  Rh  La  Rh  H  
   1   1   3   1   3   1   2   1
Cartesian
  0.0000000000000000  0.0000000000000000  9.9999994354929775
  1.4726578957845649  2.5507188194935342  9.9999994354929775
  2.9453162915690942  0.0000000000000000  9.9999994354929775
  4.4179741873536589  2.5507188194935342  9.9999994354929775
  5.8906322527501951  3.4009584276918581 12.4048401221479097
  4.4179743569656305  0.8502396081983239 12.4048401221479097
  2.9453159611811008  3.4009584276918581 12.4048401221479097
  1.4726580653965358  0.8502396081983239 12.4048401221479097
  2.9596507975063906  1.6920874024948906 14.7228062896915670
  4.4174605135794067  4.2516889013212431 15.0540555389671500
  5.8758805885872301  1.6920639460846265 14.7228529815097851
  7.3630751670869650  4.2674746828211347 14.7228796022966861
  1.4724800634570394  2.5509277029591004 15.3470386103404124
