Tc Ti Tc Ti Tc Ti Tc  H 
 1.0000000000000000
     5.5372226081479168    0.0000000000000000    0.0000000000000000
     2.7686108040739938    4.7953756606461262    0.0000000000000000
     0.0000000000000000    0.0000000000000000   24.5211222647161726
 Tc  Ti  Tc  Ti  Tc  Ti  Tc  H  
   1   1   3   1   3   1   2   1
Cartesian
  0.0000000000000000  0.0000000000000000  9.9999994532312506
  1.3843054020369969  2.3976878303230631  9.9999994532312506
  2.7686113040739584  0.0000000000000000  9.9999994532312506
  4.1529167061109558  2.3976878303230631  9.9999994532312506
  5.5372222775832185  3.1969171086958759 12.2605611323580863
  4.1529168755462216  0.7992292783728129 12.2605611323580863
  2.7686109735092597  3.1969171086958759 12.2605611323580863
  1.3843055714722627  0.7992292783728129 12.2605611323580863
  2.6869547010421631  1.6799247146351262 14.4873202482740329
  4.1753761968087018  4.0093935020375833 14.5415650167087591
  5.4663952942426306  1.5576711821599580 14.3614100233873270
  6.9512480142597264  3.8850927709437535 14.4872320948394915
  5.6815620661200725  4.8790080671504397 15.5288770590412586
