Al Zn Al Zn Al Zn Al  H 
 1.0000000000000000
     5.6530405999518365    0.0000000000000000    0.0000000000000000
     2.8153598007657124    4.9021036530933166    0.0000000000000000
     0.0000000000000000    0.0000000000000000   24.6186912578115198
 Al  Zn  Al  Zn  Al  Zn  Al  H  
   1   2   2   2   2   2   1   1
Cartesian
  0.0000000000000000  0.0000000000000000  9.9999991675619455
  1.4076799003828562  2.4510518265466583  9.9999991675619455
  2.8265202999759182  0.0000000000000000  9.9999991675619455
  4.2342002003587744  2.4510518265466583  9.9999991675619455
  5.6530404625970956  3.2723760086300913 12.3093456289057599
  4.2453605622142403  0.8213241820834331 12.3093456289057599
  2.8265201626211782  3.2723760086300913 12.3093456289057599
  1.4188402622383220  0.8213241820834331 12.3093456289057599
  2.8539434453298322  1.6680897526992258 14.6386945307096337
  4.1181938706898951  4.0204986308287403 14.6555655228790815
  5.7307214261027246  1.6788591204873591 14.7050550007931875
  7.1072042156355231  4.0951650716418673 14.6382578197454105
  3.1207113020787611  0.1712443584579914 15.6079474475500337
