Ag Cu Ag Cu Ag Cu Ag  H 
 1.0000000000000000
     5.7624595922085939    0.0000000000000000    0.0000000000000000
     2.8812297961042970    4.9904356468423359    0.0000000000000000
     0.0000000000000000    0.0000000000000000   24.7050272517017859
 Ag  Cu  Ag  Cu  Ag  Cu  Ag  H  
   1   1   3   1   3   1   2   1
Cartesian
  0.0000000000000000  0.0000000000000000  9.9999994426918999
  1.4406148980521485  2.4952178234211679  9.9999994426918999
  2.8812297961042970  0.0000000000000000  9.9999994426918999
  4.3218446941564457  2.4952178234211679  9.9999994426918999
  5.7624595950898243  3.3269570995583693 12.3525136258508930
  4.3218446970376752  0.8317392761372011 12.3525136258508930
  2.8812297989855269  3.3269570995583693 12.3525136258508930
  1.4406149009333782  0.8317392761372011 12.3525136258508930
  2.8812011739675025  1.6631161069142437 14.7782804135586066
  4.3222937338201683  4.1584014609105848 14.5809153848435500
  5.7626329269931276  1.6624688973152046 14.7774258913709993
  7.2036382604949463  4.1581019449439323 14.7776066333503735
  4.3212146527557014  0.8331469283201061 15.7632768663116973
