In Ta In Ta In Ta  H 
 1.0000000000000000
     6.3052675537957565    0.0000000000000000    0.0000000000000000
    -3.1526337768978783    5.4605216135758088    0.0000000000000000
     0.0000000000000000    0.0000000000000000   25.1482272203379011
 In  Ta  In  Ta  In  Ta  H  
   3   1   3   1   3   1   1
Cartesian
  0.0000000000000000  0.0000000000000000  9.9999992923310419
 -1.5763167884489462  2.7302607067879117  9.9999992923310419
  1.5763167884489462  2.7302607067879117  9.9999992923310419
  3.1526335768978924  0.0000000000000000  9.9999992923310419
  3.1526335768978924  1.8201738711919362 12.5741138101689369
  1.5763167884489462  4.5504345779798472 12.5741138101689369
 -1.5763167884489462  4.5504345779798472 12.5741138101689369
  0.0000000000000000  1.8201738711919362 12.5741138101689369
 -0.0000093999993348  3.6789535396518596 15.6666838913173354
  1.5684861890030934  0.9391865335366797 15.2695201194233849
  4.7367390647956569  0.9391597335385763 15.2694992194248638
  3.1526478768968804  3.6866802391050655 14.8264422507786318
 -0.0000036999997382  3.2076360730055362 17.3885867694636040
