 V Ta  V Ta  V Ta  V  H 
 1.0000000000000000
     5.4854496118117320    0.0000000000000000    0.0000000000000000
     1.8126388717251647    5.1773056336181256    0.0000000000000000
     0.0000000000000000    0.0000000000000000   24.4739002680579283
 V   Ta  V   Ta  V   Ta  V   H  
   1   2   2   2   2   2   1   1
Cartesian
  0.0000000000000000  0.0000000000000000  9.9999991834170707
  0.9063194358625823  2.5886528168090628  9.9999991834170707
  2.7427248059058660  0.0000000000000000  9.9999991834170707
  3.6490442417684483  2.5886528168090628  9.9999991834170707
  5.4854495336106996  3.8914092145299781 12.2369501340289641
  4.5791300977481164  1.3027563977209151 12.2369501340289641
  2.7427247277048332  3.8914092145299781 12.2369501340289641
  1.8364052918422509  1.3027563977209151 12.2369501340289641
  3.6673946851478991  2.5695969409421582 14.4160521021033503
  2.7373530329046605 -0.0037258014034826 14.4159370992459905
  0.9557947311708161  2.6237452312023195 14.4003253451083975
 -0.0119819994951560  0.0235054076476051 14.4161067033748473
  4.1919275455182810  1.0281190239308109 15.4412140288930519
