Pd Os Pd Os Pd Os Pd  H 
 1.0000000000000000
     5.4212086163578679    0.0000000000000000    0.0000000000000000
    -2.7106038081789694    4.8719926552241786    0.0000000000000000
     0.0000000000000000    0.0000000000000000   24.5046882658791567
 Pd  Os  Pd  Os  Pd  Os  Pd  H  
   1   2   2   2   2   2   1   1
Cartesian
  0.0000000000000000  0.0000000000000000  9.9999992396564057
 -1.3553019040894847  2.4359963276120893  9.9999992396564057
  1.3553024040894492  2.4359963276120893  9.9999992396564057
  0.0000004999999645  4.8719926552241786  9.9999992396564057
  2.7106044629496644  1.5080838365351925 12.2523441329395784
  1.3553025588601799  3.9440801641472820 12.2523441329395784
 -1.3553017493187536  3.9440801641472820 12.2523441329395784
  0.0000001547707310  1.5080838365351925 12.2523441329395784
  0.0173551367123508  2.8720897689551266 14.6417654098382393
  1.3554582732441460  0.3354542675896921 14.3410930318440322
  4.0654907631402848  0.3086489196561125 14.4142477843976256
  2.6932211424564594  2.8724787585927052 14.6416178671101900
  4.0659919742650841  1.8807401187369626 15.3991805253920386
