Re Zr Re Zr Re Zr Re  H 
 1.0000000000000000
     5.7213045951210058    0.0000000000000000    0.0000000000000000
     2.8606527975604674    4.9547956493644678    0.0000000000000000
     0.0000000000000000    0.0000000000000000   24.6714242540797670
 Re  Zr  Re  Zr  Re  Zr  Re  H  
   1   1   3   1   3   1   2   1
Cartesian
  0.0000000000000000  0.0000000000000000  9.9999992389039676
  1.4303263987802337  2.4773978246822339  9.9999992389039676
  2.8606522975605029  0.0000000000000000  9.9999992389039676
  4.2909786963407370  2.4773978246822339  9.9999992389039676
  5.7213049313149682  3.3031971012279104 12.3357121270398835
  4.2909785325347345  0.8257992765456764 12.3357121270398835
  2.8606526337544649  3.3031971012279104 12.3357121270398835
  1.4303262349742312  0.8257992765456764 12.3357121270398835
  2.7814517655343050  1.6963235759122497 14.4385765324800079
  4.3341349155501980  4.1030704442218573 14.8954634802990036
  5.8374523077181140  1.7013073917997326 14.5260364107322033
  7.1658273895001532  4.0032194798351517 14.5256480578430196
  2.5189840677134097  5.1516947443801495 15.6335005265327354
