Nb Ta Nb Ta Nb Ta Nb  H 
 1.0000000000000000
     5.5111996099894833    0.0000000000000000    0.0000000000000000
    -2.7555998049947417    5.6533265999315976    0.0000000000000000
     0.0000000000000000    0.0000000000000000   24.8121692441196799
 Nb  Ta  Nb  Ta  Nb  Ta  Nb  H  
   1   2   2   2   2   2   1   1
Cartesian
  0.0000000000000000  0.0000000000000000  9.9999991694285892
 -1.3777999024973708  2.8266632999657988  9.9999991694285892
  1.3777999024973708  2.8266632999657988  9.9999991694285892
  2.7555998049947417  0.0000000000000000  9.9999991694285892
  2.7555998022391419  1.3431614465192081 12.4060846220598400
  1.3777998997417709  4.1698247464850073 12.4060846220598400
 -1.3777999052529708  4.1698247464850073 12.4060846220598400
 -0.0000000027555997  1.3431614465192081 12.4060846220598400
 -0.0009300369789842  2.7090352344135207 14.7977810511273784
 -1.3860450621870863  5.5826326835983417 14.7548083341579339
  1.3841544148492813  5.5827111121982629 14.7547552857400888
  2.7546436449296063  2.7159563760367527 14.7024695691665581
 -0.0006708011717294  4.5378633691454775 15.8258247759666055
