Mo  W Mo  W Mo  W  H 
 1.0000000000000000
     5.6865065975835511    0.0000000000000000    0.0000000000000000
    -2.8432537987917406    4.9246596514970991    0.0000000000000000
     0.0000000000000000    0.0000000000000000   24.6430122560903975
 Mo  W   Mo  W   Mo  W   H  
   3   1   3   1   3   1   1
Cartesian
  0.0000000000000000  0.0000000000000000  9.9999992923310419
 -1.4216267993958773  2.4623298257485495  9.9999992923310419
  1.4216267993958773  2.4623298257485495  9.9999992923310419
  2.8432534987917619  0.0000000000000000  9.9999992923310419
  2.8432534987917619  1.6415531838323687 12.3215061280451987
  1.4216267993958773  4.1038830095809180 12.3215061280451987
 -1.4216267993958773  4.1038830095809180 12.3215061280451987
  0.0000000000000000  1.6415531838323687 12.3215061280451987
  0.0005566999606041  3.2985558665714243 14.5536279700848539
  1.4352814984295765  0.8134159424370747 14.5534404700981224
  4.2516262991255829  0.8130849424604984 14.5535434700908315
  2.8435447987711475  3.2828356676838939 14.8488721491913367
  2.8433018987883365  3.2831627676607460 16.6001037252621089
