Mo Ti Mo Ti Mo Ti  H 
 1.0000000000000000
     5.6965235968746795    0.0000000000000000    0.0000000000000000
    -2.8482617984373397    4.9333336508832675    0.0000000000000000
     0.0000000000000000    0.0000000000000000   24.6511902555116649
 Mo  Ti  Mo  Ti  Mo  Ti  H  
   3   1   3   1   3   1   1
Cartesian
  0.0000000000000000  0.0000000000000000  9.9999992923310419
 -1.4241308992186699  2.4666670254416192  9.9999992923310419
  1.4241308992186699  2.4666670254416192  9.9999992923310419
  2.8482616984373466  0.0000000000000000  9.9999992923310419
  2.8482616984373466  1.6444446836277462 12.3255952277558247
  1.4241308992186699  4.1111117090693661 12.3255952277558247
 -1.4241308992186699  4.1111117090693661 12.3255952277558247
  0.0000000000000000  1.6444446836277462 12.3255952277558247
  0.0001872999867454  3.3513634628343940 14.4692105760588099
  1.4785851953651081  0.7909869440243054 14.4691372760639965
  4.2185468014665171  0.7910604440191041 14.4693045760521581
  2.8484232984259110  3.2889275672527893 15.0817734327096353
  2.8482516984380548  3.2888464672585282 16.8280978091276729
