Ni Ta Ni Ta Ni Ta  H 
 1.0000000000000000
     5.2276026300587635    0.0000000000000000    0.0000000000000000
    -2.6138018150293463    4.5272366796214918    0.0000000000000000
     0.0000000000000000    0.0000000000000000   24.2683182826063266
 Ni  Ta  Ni  Ta  Ni  Ta  H  
   3   1   3   1   3   1   1
Cartesian
  0.0000000000000000  0.0000000000000000  9.9999992923310419
 -1.3069007075146872  2.2636183398107459  9.9999992923310419
  1.3069007075146872  2.2636183398107459  9.9999992923310419
  2.6138013150293817  0.0000000000000000  9.9999992923310419
  2.6138013150293817  1.5090788932071637 12.1341591413031633
  1.3069007075146872  3.7726972330179094 12.1341591413031633
 -1.3069007075146872  3.7726972330179094 12.1341591413031633
  0.0000000000000000  1.5090788932071637 12.1341591413031633
 -0.0001520999892364  3.0063024872532900 14.1878859959672798
  1.2963283082628632  0.7602990461959929 14.1878568959693379
  3.9311840218022902  0.7604518461851796 14.1878393959705775
  2.6137318150343001  3.0180450864223025 14.4085905803486991
  2.6137485150331181  3.0181677864136200 16.1921461541319971
