Ni Rh Ni Rh Ni Rh  H 
 1.0000000000000000
     5.1420406361137205    0.0000000000000000    0.0000000000000000
    -2.5710198180568953    4.4531376848652471    0.0000000000000000
     0.0000000000000000    0.0000000000000000   24.1984572875501733
 Ni  Rh  Ni  Rh  Ni  Rh  H  
   3   1   3   1   3   1   1
Cartesian
  0.0000000000000000  0.0000000000000000  9.9999995037070040
 -1.2855099090284476  2.2265688424326235  9.9999995037070040
  1.2855104090284126  2.2265688424326235  9.9999995037070040
  2.5710203180568603  0.0000000000000000  9.9999995037070040
  2.5710204872945353  1.4843792268040366 12.0992286437750867
  1.2855105782660874  3.7109480692366601 12.0992286437750867
 -1.2855097397907729  3.7109480692366601 12.0992286437750867
  0.0000001692376751  1.4843792268040366 12.0992286437750867
  0.0212428326364009  2.9851153226228662 14.1833978497518061
  1.3072038329321258  0.7181867403808442 14.1592425867105138
  3.8474862949032129  0.7223365169672034 14.1511516147303062
  2.5578084644172545  2.9552859575751076 14.2263910794253956
 -1.2317597295977571  2.9988827232458739 15.2935679460189071
