Ni Hf Ni Hf Ni Hf  H 
 1.0000000000000000
     5.2940256253582136    0.0000000000000000    0.0000000000000000
    -2.6470128126791068    4.5847606755506964    0.0000000000000000
     0.0000000000000000    0.0000000000000000   24.3225522787683559
 Ni  Hf  Ni  Hf  Ni  Hf  H  
   3   1   3   1   3   1   1
Cartesian
  0.0000000000000000  0.0000000000000000  9.9999993907020883
 -1.3235064063395534  2.2923803377753482  9.9999993907020883
  1.3235064063395534  2.2923803377753482  9.9999993907020883
  2.6470128126791068  0.0000000000000000  9.9999993907020883
  2.6470128153261197  1.5282535569886453 12.1612761393841780
  1.3235064089865660  3.8206338947639935 12.1612761393841780
 -1.3235064036925408  3.8206338947639935 12.1612761393841780
  0.0000000026470127  1.5282535569886453 12.1612761393841780
  0.0099266289241482  3.1603220552236699 14.2884458108116910
  1.3580810841798470  0.7935564191649517 14.2530342664333016
  3.9834500380763793  0.7549459259072117 14.2448909786401607
  2.6747481679311402  3.0696000121831699 14.3205301273285581
 -0.9056711774615535  3.1187631940706964 15.5738845993346917
