Cu La Cu La Cu La  H 
 1.0000000000000000
     6.1128305674139254    0.0000000000000000    0.0000000000000000
    -3.0564147837069982    5.2938666253694651    0.0000000000000000
     0.0000000000000000    0.0000000000000000   24.9911032314570782
 Cu  La  Cu  La  Cu  La  H  
   3   1   3   1   3   1   1
Cartesian
  0.0000000000000000  0.0000000000000000  9.9999992923310419
 -1.5282075918534850  2.6469331126847471  9.9999992923310419
  1.5282075918534850  2.6469331126847471  9.9999992923310419
  3.0564150837069768  0.0000000000000000  9.9999992923310419
  3.0564150837069768  1.7646220751231647 12.4955518157285237
  1.5282075918534850  4.4115552878079045 12.4955518157285237
 -1.5282075918534850  4.4115552878079045 12.4955518157285237
  0.0000000000000000  1.7646220751231647 12.4955518157285237
  0.0011975999152496  4.0109942161543701 14.4834166750534887
  1.8156814715098495  0.8234887417242539 14.5536083700862395
  4.2990454957698736  0.8221784418169799 14.5531931701156232
  3.0593226835012155  3.6181148439572257 15.1586299272707397
 -0.0078322994457324  3.3150575654036500 15.8679719770728020
