Cr Ga Cr Ga Cr Ga  H 
 1.0000000000000000
     5.1920676325734645    0.0000000000000000    0.0000000000000000
    -2.5960338162867322    4.4964626817992714    0.0000000000000000
     0.0000000000000000    0.0000000000000000   24.2393042846595570
 Cr  Ga  Cr  Ga  Cr  Ga  H  
   3   1   3   1   3   1   1
Cartesian
  0.0000000000000000  0.0000000000000000  9.9999992923310419
 -1.2980170081433593  2.2482314408996285  9.9999992923310419
  1.2980170081433593  2.2482314408996285  9.9999992923310419
  2.5960340162867186  0.0000000000000000  9.9999992923310419
  2.5960340162867186  1.4988209939330834 12.1196522423297726
  1.2980170081433593  3.7470524348327117 12.1196522423297726
 -1.2980170081433593  3.7470524348327117 12.1196522423297726
  0.0000000000000000  1.4988209939330834 12.1196522423297726
  0.0012087999144570  3.1310155784277311 14.0944175025817540
  1.4152388998479291  0.6823080517151737 14.0940232026096588
  3.7797908325159173  0.6825620516971990 14.0950027025403415
  2.5992684160578299  2.9969172879174515 14.6233342651519553
  2.5941813164178282  2.9968647879211670 16.2310243513807109
