Ru Sn Ru Sn Ru Sn  H 
 1.0000000000000000
     5.6081886031258739    0.0000000000000000    0.0000000000000000
    -2.8040948015629010    4.8568336562969350    0.0000000000000000
     0.0000000000000000    0.0000000000000000   24.5790652606157245
 Ru  Sn  Ru  Sn  Ru  Sn  H  
   3   1   3   1   3   1   1
Cartesian
  0.0000000000000000  0.0000000000000000  9.9999992923310419
 -1.4020472007814648  2.4284169281484602  9.9999992923310419
  1.4020472007814648  2.4284169281484602  9.9999992923310419
  2.8040944015629297  0.0000000000000000  9.9999992923310419
  2.8040944015629297  1.6189445854323090 12.2895327303078563
  1.4020472007814648  4.0473616135807626 12.2895327303078563
 -1.4020472007814648  4.0473616135807626 12.2895327303078563
  0.0000000000000000  1.6189445854323090 12.2895327303078563
 -0.0003482999753519  3.2967723666976370 14.4445459778042480
  1.4517873972615052  0.7782481449257906 14.4445707778024932
  4.1568227058345402  0.7788882448804928 14.4445592778033056
  2.8033712016141084  3.2355733710285000 15.0363985359206751
  2.8045495015307234  3.2375695708872354 16.8201112096928576
