Hg Cr Hg Cr Hg Cr  H 
 1.0000000000000000
     6.0968605685440727    0.0000000000000000    0.0000000000000000
    -3.0484307842720009    5.2800366263481724    0.0000000000000000
     0.0000000000000000    0.0000000000000000   24.9780652323797341
 Hg  Cr  Hg  Cr  Hg  Cr  H  
   3   1   3   1   3   1   1
Cartesian
  0.0000000000000000  0.0000000000000000  9.9999992923310419
 -1.5242152921360077  2.6400183131740862  9.9999992923310419
  1.5242152921360077  2.6400183131740862  9.9999992923310419
  3.0484304842720222  0.0000000000000000  9.9999992923310419
  3.0484304842720222  1.7600121754493931 12.4890324161898807
  1.5242152921360077  4.4000304886234787 12.4890324161898807
 -1.5242152921360077  4.4000304886234787 12.4890324161898807
  0.0000000000000000  1.7600121754493931 12.4890324161898807
  0.0000180999987191  3.5147977512686559 15.2648245197556776
  1.5196665924579049  0.8826244375394040 15.2648292197553452
  4.5772280760837551  0.8826417375381798 15.2647962197576792
  3.0484396842713712  3.5200176508992600 14.7001537597156773
  3.0484342842717536  3.5200281508985172 16.3112843457009582
