 Y Mo  Y Mo  Y Mo  H 
 1.0000000000000000
     6.6666475282220157    0.0000000000000000    0.0000000000000000
    -3.3333237641110078    5.7734855914283179    0.0000000000000000
     0.0000000000000000    0.0000000000000000   25.4432931994569920
 Y   Mo  Y   Mo  Y   Mo  H  
   3   1   3   1   3   1   1
Cartesian
  0.0000000000000000  0.0000000000000000  9.9999992923310419
 -1.6666617820555110  2.8867429957141448  9.9999992923310419
  1.6666617820555110  2.8867429957141448  9.9999992923310419
  3.3333236641110147  0.0000000000000000  9.9999992923310419
  3.3333236641110147  1.9244952638094346 12.7216465997284960
  1.6666617820555110  4.8112382595235799 12.7216465997284960
 -1.6666617820555110  4.8112382595235799 12.7216465997284960
  0.0000000000000000  1.9244952638094346 12.7216465997284960
 -0.0001418999899582  3.8100796303724724 15.4531857064259395
  1.6328966844449622  0.9813863305503309 15.4533815064120841
  5.0336707437827224  0.9812859305574358 15.4534959064039885
  3.3332010641196907  3.8491427276080987 15.1840459254721285
  3.3332879641135413  3.8489672276205180 16.9616371996775008
