Ga Ag Ga Ag Ga Ag Ga  H 
 1.0000000000000000
     5.9149405814179863    0.0000000000000000    0.0000000000000000
    -2.9574697907090286    5.1845356331064805    0.0000000000000000
     0.0000000000000000    0.0000000000000000   24.8581682408644760
 Ga  Ag  Ga  Ag  Ga  Ag  Ga  H  
   1   2   2   2   2   2   1   1
Cartesian
  0.0000000000000000  0.0000000000000000  9.9999991796429608
 -1.4787348953545143  2.5922678165532402  9.9999991796429608
  1.4787353953544788  2.5922678165532402  9.9999991796429608
  2.9574702907089931  0.0000000000000000  9.9999991796429608
  2.9574704563677341  1.6870611933467476 12.4290841204322380
  1.4787355610132198  4.2793290098999881 12.4290841204322380
 -1.4787347296957729  4.2793290098999881 12.4290841204322380
  0.0000001656587413  1.6870611933467476 12.4290841204322380
 -0.0538756399258211  3.3317413534998459 14.9758866072815700
  1.4782644873858186  0.6109222034279209 15.0219862542914306
  4.4362021900870179  0.7804039837309327 14.8613446424979490
  3.0104911545734852  3.3318966821874136 14.9758570012031935
  1.4789987545822094  2.5866251079526292 15.7709327850051064
