Ga Ag Ga Ag Ga Ag  H 
 1.0000000000000000
     5.9149405814179863    0.0000000000000000    0.0000000000000000
    -2.9574697907090286    5.1845356331064805    0.0000000000000000
     0.0000000000000000    0.0000000000000000   24.8581682408644760
 Ga  Ag  Ga  Ag  Ga  Ag  H  
   2   2   2   2   2   2   1
Cartesian
  0.0000000000000000  0.0000000000000000  9.9999992923310419
  2.9574700907090077  0.0000000000000000  9.9999992923310419
  1.4787350953545002  2.5922679165532334  9.9999992923310419
 -1.4787350953545002  2.5922679165532334  9.9999992923310419
  2.9574700907090077  1.6870612806119016 12.4290842204322303
  0.0000000000000000  1.6870612806119016 12.4290842204322303
 -1.4787350953545002  4.2793290971651423 12.4290842204322303
  1.4787350953545002  4.2793290971651423 12.4290842204322303
  0.0005969999577522  3.3744245612024315 15.0396036356938616
  2.9578224906840691  3.4188292580600494 14.9354601430637750
  4.4510601850122651  0.9166470351317303 14.8562929486661908
  1.4650112963256909  0.9165893351358134 14.8562987486657807
  0.0002541999820111  3.9988337170149308 16.5305130301868246
