Hf Sc Hf Sc Hf Sc  H 
 1.0000000000000000
     6.3534305503874098    0.0000000000000000    0.0000000000000000
    -3.1767157751936699    5.5022326106240511    0.0000000000000000
     0.0000000000000000    0.0000000000000000   25.1875532175549210
 Hf  Sc  Hf  Sc  Hf  Sc  H  
   3   1   3   1   3   1   1
Cartesian
  0.0000000000000000  0.0000000000000000  9.9999992923310419
 -1.5883576875968490  2.7511162053120324  9.9999992923310419
  1.5883576875968490  2.7511162053120324  9.9999992923310419
  3.1767153751936981  0.0000000000000000  9.9999992923310419
  3.1767153751936981  1.8340774702080218 12.5937765087774682
  1.5883576875968490  4.5851936755200544 12.5937765087774682
 -1.5883576875968490  4.5851936755200544 12.5937765087774682
  0.0000000000000000  1.8340774702080218 12.5937765087774682
 -0.0002045999855211  3.6492674417526527 15.1549854275286489
  1.6072315862612019  0.9091576356617318 15.0337771361061847
  4.7461124641323300  0.9093815356458871 15.0339238360958038
  3.1765706752039384  3.6535088414525023 15.2208284228691451
 -0.0000224999984077  3.6618154408646699 17.0665577922525991
