 Y La  Y La  Y La  H 
 1.0000000000000000
     7.2687094856159566    0.0000000000000000    0.0000000000000000
    -3.6343547428079783    6.2948875545303169    0.0000000000000000
     0.0000000000000000    0.0000000000000000   25.9348751646692612
 Y   La  Y   La  Y   La  H  
   3   1   3   1   3   1   1
Cartesian
  0.0000000000000000  0.0000000000000000  9.9999992923310419
 -1.8171774714039821  3.1474437772651584  9.9999992923310419
  1.8171774714039821  3.1474437772651584  9.9999992923310419
  3.6343549428079642  0.0000000000000000  9.9999992923310419
  3.6343549428079642  2.0982958515101058 12.9674376823346229
  1.8171774714039821  5.2457395287752711 12.9674376823346229
 -1.8171774714039821  5.2457395287752711 12.9674376823346229
  0.0000000000000000  2.0982958515101058 12.9674376823346229
  0.0002152999847639  4.1981631029090085 15.8202622804490680
  1.8181796713330596  1.0482393258193516 15.8205377804295733
  5.4505767142795785  1.0480517258326276 15.8207095804174145
  3.6343440428087357  4.1966209030181449 15.9824268689731834
  3.6344711427997409  4.1965780030211803 18.1480998157152236
