Hf  V Hf  V Hf  V  H 
 1.0000000000000000
     6.1266305664373419    0.0000000000000000    0.0000000000000000
    -3.0633147832187064    5.3058176245237307    0.0000000000000000
     0.0000000000000000    0.0000000000000000   25.0023712306596728
 Hf  V   Hf  V   Hf  V   H  
   3   1   3   1   3   1   1
Cartesian
  0.0000000000000000  0.0000000000000000  9.9999992923310419
  4.5949727748280171  2.6529087122618722  9.9999992923310419
  1.5316575916093391  2.6529087122618722  9.9999992923310419
  3.0633151832186782  0.0000000000000000  9.9999992923310419
  3.0633151832186782  1.7686058748412434 12.5011856153298364
  1.5316575916093391  4.4215145871031156 12.5011856153298364
 -1.5316575916093391  4.4215145871031156 12.5011856153298364
  0.0000000000000000  1.7686058748412434 12.5011856153298364
  0.0001081999923430  3.4923874528545635 14.9430159425290725
  1.4928575943550948  0.9067035358354009 14.9430960425234041
  4.6338173720791058  0.9066287358406943 14.9430491425267231
  3.0632089832261942  3.5373258496744127 14.7745753544490928
  3.0633333832173903  3.5371731496852186 16.5239457306515689
