Cr Os Cr Os Cr Os  H 
 1.0000000000000000
     5.2262586301538736    0.0000000000000000    0.0000000000000000
    -2.6131288150769723    4.5260726797038640    0.0000000000000000
     0.0000000000000000    0.0000000000000000   24.2672212826839591
 Cr  Os  Cr  Os  Cr  Os  H  
   3   1   3   1   3   1   1
Cartesian
  0.0000000000000000  0.0000000000000000  9.9999992923310419
 -1.3065646075384720  2.2630363398519320  9.9999992923310419
  1.3065646075384720  2.2630363398519320  9.9999992923310419
  2.6131293150769368  0.0000000000000000  9.9999992923310419
  2.6131293150769368  1.5086908932346212 12.1336104413419932
  1.3065646075384720  3.7717272330865530 12.1336104413419932
 -1.3065646075384720  3.7717272330865530 12.1336104413419932
  0.0000000000000000  1.5086908932346212 12.1336104413419932
 -0.0000296999978982  3.0486905842536158 14.2894311887812417
  1.3171386067901829  0.7399389476368139 14.1714469971306158
  3.9090633233677035  0.7400206476310323 14.1714642971293916
  2.6134201150563579  3.0228970860789417 14.1854680961383863
 -0.0000329999976647  3.0099581869945875 15.9341824723872900
