 Y Cr  Y Cr  Y Cr  H 
 1.0000000000000000
     6.6296115308429382    0.0000000000000000    0.0000000000000000
    -3.3148057654214691    5.7414115936980954    0.0000000000000000
     0.0000000000000000    0.0000000000000000   25.4130532015969841
 Y   Cr  Y   Cr  Y   Cr  H  
   3   1   3   1   3   1   1
Cartesian
  0.0000000000000000  0.0000000000000000  9.9999992923310419
 -1.6574028827107345  2.8707059968490336  9.9999992923310419
  1.6574028827107345  2.8707059968490336  9.9999992923310419
  3.3148057654214691  0.0000000000000000  9.9999992923310419
  3.3148057654214691  1.9138039645660245 12.7065268007984784
  1.6574028827107345  4.7845099614150586 12.7065268007984784
 -1.6574028827107345  4.7845099614150586 12.7065268007984784
  0.0000000000000000  1.9138039645660245 12.7065268007984784
 -0.0000215999984714  3.7838824322263673 15.4124841093062663
  1.6196506853823407  0.9786193307461429 15.4126402092952208
  5.0099564454609098  0.9785477307512098 15.4126190092967192
  3.3148697654169403  3.8277201291241094 15.0772456330300546
  3.3147784654234012  3.8276605291283268 16.7643066136419776
