Al Zr Al Zr Al Zr Al  H 
 1.0000000000000000
     5.7939185899823373    0.0000000000000000    0.0000000000000000
     2.8969587949912041    5.0176806449142912    0.0000000000000000
     0.0000000000000000    0.0000000000000000   24.7307132498840687
 Al  Zr  Al  Zr  Al  Zr  Al  H  
   1   1   3   1   3   1   2   1
Cartesian
  0.0000000000000000  0.0000000000000000  9.9999993527070927
  1.4484793974956021  2.5088403224571456  9.9999993527070927
  2.8969592949911687  0.0000000000000000  9.9999993527070927
  4.3454386924867707  2.5088403224571456  9.9999993527070927
  5.7939182595459862  3.3451204316154208 12.3653566249420344
  4.3454388620503845  0.8362801091582753 12.3653566249420344
  2.8969589645548179  3.3451204316154208 12.3653566249420344
  1.4484795670592159  0.8362801091582753 12.3653566249420344
  2.9221112256469315  1.6579780957456944 14.9876022273338005
  4.3450012124056983  4.1816723284635087 14.5943549022647137
  5.7686927113834372  1.6578413137713142 14.9875781643498094
  7.2425654939001110  4.2106553048742432 14.9877326571154796
  4.3458812772425759  0.8336755565775166 16.1116896860985399
