Cr Ir Cr Ir Cr Ir Cr  H 
 1.0000000000000000
     5.2929786254323066    0.0000000000000000    0.0000000000000000
     2.5897378167322809    4.6161546733290404    0.0000000000000000
     0.0000000000000000    0.0000000000000000   24.3362292778004772
 Cr  Ir  Cr  Ir  Cr  Ir  Cr  H  
   1   2   2   2   2   2   1   1
Cartesian
  0.0000000000000000  0.0000000000000000  9.9999991207729693
  1.2948689083661404  2.3080773366645202  9.9999991207729693
  2.6464893127161533  0.0000000000000000  9.9999991207729693
  3.9413582210822939  2.3080773366645202  9.9999991207729693
  5.2929789399805554  3.0995925895457037 12.1681146389002386
  3.9981100316144147  0.7915152528811837 12.1681146389002386
  2.6464896272644021  3.0995925895457037 12.1681146389002386
  1.3516207188982619  0.7915152528811837 12.1681146389002386
  2.6766175809644732  1.5674295878629707 14.1971128567840701
  4.0528028117256456  3.9083877204071391 14.2938350584605125
  5.3915605255357075  1.6224549686284302 14.2938141779757899
  6.5802700670784375  3.8533820183090519 14.2155121169121728
  0.0539806776642707  0.0318237149240743 15.2844343353880348
