 Y Sn  Y Sn  Y Sn  H 
 1.0000000000000000
     6.8451125155926009    0.0000000000000000    0.0000000000000000
    -3.4225567577962654    5.9280415804908690    0.0000000000000000
     0.0000000000000000    0.0000000000000000   25.5890101891450534
 Y   Sn  Y   Sn  Y   Sn  H  
   3   1   3   1   3   1   1
Cartesian
  0.0000000000000000  0.0000000000000000  9.9999992923310419
 -1.7112782788981400  2.9640208902454277  9.9999992923310419
  1.7112782788981400  2.9640208902454277  9.9999992923310419
  3.4225564577962864  0.0000000000000000  9.9999992923310419
  3.4225564577962864  1.9760139601636162 12.7945049945725344
  1.7112782788981400  4.9400347504090512 12.7945049945725344
 -1.7112782788981400  4.9400347504090512 12.7945049945725344
  0.0000000000000000  1.9760139601636162 12.7945049945725344
 -0.0003082999781826  3.9319324217493281 15.6964632892099392
  1.6812213810251733  0.9934269296982550 15.6623200916261478
  5.1636589345838608  0.9935256296912702 15.6625675916086333
  3.4222320578192438  3.9583508198797799 15.4413097072663685
 -0.0000389999972401  3.9727573188602769 17.7224240458389772
