Pt Tc Pt Tc Pt Tc  H 
 1.0000000000000000
     5.5877976045688813    0.0000000000000000    0.0000000000000000
    -2.7938988022844407    4.8391746575466072    0.0000000000000000
     0.0000000000000000    0.0000000000000000   24.5624162617939277
 Pt  Tc  Pt  Tc  Pt  Tc  H  
   3   1   3   1   3   1   1
Cartesian
  0.0000000000000000  0.0000000000000000  9.9999993883078453
 -1.3969494011422203  2.4195873287733036  9.9999993883078453
  1.3969494011422203  2.4195873287733036  9.9999993883078453
  2.7938988022844407  0.0000000000000000  9.9999993883078453
  2.7938988050783391  1.6130582175691441 12.2812081308969638
  1.3969494039361190  4.0326455463424482 12.2812081308969638
 -1.3969493983483214  4.0326455463424482 12.2812081308969638
  0.0000000027938988  1.6130582175691441 12.2812081308969638
  0.0393055462151182  3.2341747255615285 14.6134933619185823
  1.3977237134318805  0.8499302701862189 14.5471111231039565
  4.2480709639889547  0.8047280381450658 14.5307997382752401
  2.7792165763068595  3.1974813401392805 14.5191089615064453
 -1.3762404057680526  3.2665970554310255 15.6786292057192451
