Al Zr Al Zr Al Zr Al  H 
 1.0000000000000000
     5.7939185899823373    0.0000000000000000    0.0000000000000000
     2.8969587949912041    5.0176806449142912    0.0000000000000000
     0.0000000000000000    0.0000000000000000   24.7307132498840687
 Al  Zr  Al  Zr  Al  Zr  Al  H  
   1   1   3   1   3   1   2   1
Cartesian
  0.0000000000000000  0.0000000000000000  9.9999993527070927
  1.4484793974956021  2.5088403224571456  9.9999993527070927
  2.8969592949911687  0.0000000000000000  9.9999993527070927
  4.3454386924867707  2.5088403224571456  9.9999993527070927
  5.7939182595459862  3.3451204316154208 12.3653566249420344
  4.3454388620503845  0.8362801091582753 12.3653566249420344
  2.8969589645548179  3.3451204316154208 12.3653566249420344
  1.4484795670592159  0.8362801091582753 12.3653566249420344
  2.8720185229211248  1.7221784063794956 14.8377464456654131
  4.3694919108295842  4.1953173740855245 14.6520767332199284
  5.7659443169983460  1.6563723927801959 14.8786365284520432
  7.2730122539533735  4.1347996546836807 14.8377878201486801
  5.8696294997175116  5.0617070343306105 15.7974304785382298
