Pd La Pd La Pd La  H 
 1.0000000000000000
     6.0278335734289001    0.0000000000000000    0.0000000000000000
    -3.0139167867144501    5.2202576305785469    0.0000000000000000
     0.0000000000000000    0.0000000000000000   24.9217042363682282
 Pd  La  Pd  La  Pd  La  H  
   3   1   3   1   3   1   1
Cartesian
  0.0000000000000000  0.0000000000000000  9.9999993049588802
 -1.5069583933572250  2.6101288152892734  9.9999993049588802
  1.5069583933572250  2.6101288152892734  9.9999993049588802
  3.0139167867144501  0.0000000000000000  9.9999993049588802
  3.0139167897283663  1.7400858751194297 12.4608521181841141
  1.5069583963711413  4.3502146904087029 12.4608521181841141
 -1.5069583903433086  4.3502146904087029 12.4608521181841141
  0.0000000030139167  1.7400858751194297 12.4608521181841141
  0.0533723553102163  3.5141581435781033 14.9613128962653885
  1.5630842992107845  0.8992688291882921 14.9613075630206840
  4.5368713023038190  0.8792736868264023 14.8751447580961198
  3.0211759439354240  3.4843628967206612 15.0866780902312563
 -0.8513766449891476  4.7287128160989420 15.9437685700214793
