Pd Ti Pd Ti Pd Ti  H 
 1.0000000000000000
     5.5856776047189065    0.0000000000000000    0.0000000000000000
    -2.7928388023594533    4.8373386576765354    0.0000000000000000
     0.0000000000000000    0.0000000000000000   24.5606852619164258
 Pd  Ti  Pd  Ti  Pd  Ti  H  
   3   1   3   1   3   1   1
Cartesian
  0.0000000000000000  0.0000000000000000  9.9999993237946736
 -1.3964194011797266  2.4186693288382677  9.9999993237946736
  1.3964194011797266  2.4186693288382677  9.9999993237946736
  2.7928388023594533  0.0000000000000000  9.9999993237946736
  2.7928388051522921  1.6124462176130656 12.2803426309582129
  1.3964194039725655  4.0311155464513337 12.2803426309582129
 -1.3964193983868878  4.0311155464513337 12.2803426309582129
  0.0000000027928387  1.6124462176130656 12.2803426309582129
  0.0577756378389322  3.2285990895086236 14.6040754832832711
  1.4285195670287965  0.8544053648769254 14.6040746973413444
  4.2608094573282962  0.8475350282269098 14.5265309158904916
  2.7826964686067441  3.2190337892576593 14.4222628984130026
 -1.3297927628436490  4.0695836936403049 15.5276732246871347
