Pd Sc Pd Sc Pd Sc  H 
 1.0000000000000000
     5.7068405961445778    0.0000000000000000    0.0000000000000000
    -2.8534207980722535    4.9422696502508936    0.0000000000000000
     0.0000000000000000    0.0000000000000000   24.6596142549155246
 Pd  Sc  Pd  Sc  Pd  Sc  H  
   3   1   3   1   3   1   1
Cartesian
  0.0000000000000000  0.0000000000000000  9.9999991014076315
 -1.4267103990361267  2.4711348251254468  9.9999991014076315
  1.4267098990361622  2.4711348251254468  9.9999991014076315
  2.8534202980722889  0.0000000000000000  9.9999991014076315
  2.8534201342590544  1.6474232151028747 12.3298071274577623
  1.4267097352229277  4.1185580402283213 12.3298071274577623
 -1.4267105628493610  4.1185580402283213 12.3298071274577623
 -0.0000001638132344  1.6474232151028747 12.3298071274577623
  0.0621495338116163  3.3046595734788835 14.6961876794516737
  1.4662833479104109  0.8726271061022242 14.6961889617516128
  4.3469560222754495  0.8622935270081095 14.6323914818819816
  2.9001980127185663  3.3218535071899722 14.5512314388712181
 -1.1252122366771733  4.2926276784224422 15.6319224130128820
