Co Ir Co Ir Co Ir  H 
 1.0000000000000000
     5.0752386408410901    0.0000000000000000    0.0000000000000000
    -2.5376198204205100    4.3952856889592535    0.0000000000000000
     0.0000000000000000    0.0000000000000000   24.1439142914100131
 Co  Ir  Co  Ir  Co  Ir  H  
   3   1   3   1   3   1   1
Cartesian
  0.0000000000000000  0.0000000000000000  9.9999994324130164
 -1.2688099102102550  2.1976428444796268  9.9999994324130164
  1.2688094102102900  2.1976428444796268  9.9999994324130164
  2.5376193204205451  0.0000000000000000  9.9999994324130164
  2.5376191562915098  1.4650952281879894 12.0719571457050066
  1.2688092460812546  3.6627380726676160 12.0719571457050066
 -1.2688100743392905  3.6627380726676160 12.0719571457050066
 -0.0000001641290356  1.4650952281879894 12.0719571457050066
  0.0033065948591564  2.9825085176850834 14.0827359185443921
  1.1966056680311263  0.7647325968116101 14.1344639651867681
  3.7843690881975185  0.6891129855612017 14.0902933017324052
  2.5017053097125412  2.9270389310501379 14.2020231039982754
 -1.1060920759484230  2.1157176464976950 15.0155798442535442
