Pt Mn Pt Mn Pt Mn  H 
 1.0000000000000000
     5.5904006043846746    0.0000000000000000    0.0000000000000000
    -2.7951998021923727    4.8414286573870982    0.0000000000000000
     0.0000000000000000    0.0000000000000000   24.5645412616435443
 Pt  Mn  Pt  Mn  Pt  Mn  H  
   3   1   3   1   3   1   1
Cartesian
  0.0000000000000000  0.0000000000000000  9.9999992696908464
 -1.3975999010961864  2.4207143286935491  9.9999992696908464
  1.3976004010961509  2.4207143286935491  9.9999992696908464
  2.7952003021923373  0.0000000000000000  9.9999992696908464
  2.7952004716541925  1.6138095508485566 12.2822706308217722
  1.3976005705580059  4.0345238795421059 12.2822706308217722
 -1.3975997316343314  4.0345238795421059 12.2822706308217722
  0.0000001694618550  1.6138095508485566 12.2822706308217722
  0.0283486613097859  3.1917819317451177 14.6093175745218069
  1.3807252428296837  0.8493753683333345 14.6093045307503981
  4.2348124276205583  0.8311581132027482 14.5469901604949694
  2.7898914848637428  3.2245522938726627 14.5866990853479948
 -1.0721656212197257  4.2224134415609011 15.5480405384855729
