Co Sc Co Sc Co Sc  H 
 1.0000000000000000
     5.2151496309400240    0.0000000000000000    0.0000000000000000
    -2.6075748154700120    4.5164516803847121    0.0000000000000000
     0.0000000000000000    0.0000000000000000   24.2581502833258860
 Co  Sc  Co  Sc  Co  Sc  H  
   3   1   3   1   3   1   1
Cartesian
  0.0000000000000000  0.0000000000000000  9.9999992708694041
 -1.3037874077350060  2.2582258401923561  9.9999992708694041
  1.3037874077350060  2.2582258401923561  9.9999992708694041
  2.6075748154700120  0.0000000000000000  9.9999992708694041
  2.6075748180775871  1.5054838919560869 12.1290751416629430
  1.3037874103425811  3.7637097321484427 12.1290751416629430
 -1.3037874051274312  3.7637097321484427 12.1290751416629430
  0.0000000026075747  1.5054838919560869 12.1290751416629430
  0.0581844179085189  3.0540235513606424 14.2380683933232746
  1.3703331603135194  0.7819039134561793 14.2379650778612170
  3.8402110580373900  0.7120329561796385 14.1685648871993504
  2.6556676580851803  3.0392075122812079 14.5504139590726496
 -0.7944437824935504  4.0579087931325351 15.3395007799383816
