Pd Pt Pd Pt Pd Pt Pd Pt  H 
 1.0000000000000000
     5.6348556012387325    0.0000000000000000    0.0000000000000000
     2.8052128014837843    4.8728556551631073    0.0000000000000000
     0.0000000000000000    0.0000000000000000   24.5974752593129082
 Pd  Pt  Pd  Pt  Pd  Pt  Pd  Pt  H  
   1   1   1   2   2   2   2   1   1
Cartesian
  4.2078183755211134  0.8215190181440691  9.9999993963659399
  1.3903905749017471  0.8215190181440691  9.9999993963659399
  5.6104247762630060  3.2579468457256229  9.9999993963659399
  2.7929969756436392  3.2579468457256229  9.9999993963659399
  5.6226401901534757  1.6289734252992392 12.2987376296564541
  2.8052123895341090  1.6289734252992392 12.2987376296564541
  4.2078187902760016  4.0654012528807932 12.2987376296564541
  7.0252465908953674  4.0654012528807932 12.2987376296564541
  2.8571132730002602 -0.0228232864034268 14.5516209052039045
  0.0187434737163065 -0.0126915084852533 14.6948660487972553
  1.4230043140972439  2.4265671412420438 14.6948323256586768
  4.2332069252652547  2.4288071929867225 14.5653816429705465
  0.7451554269298479  1.1929861070185985 15.7027524186527536
