Ni Co Ni Co Ni Co  H 
 1.0000000000000000
     5.0032356459365195    0.0000000000000000    0.0000000000000000
    -2.5016178229682597    4.3329286933720654    0.0000000000000000
     0.0000000000000000    0.0000000000000000   24.0851232955704688
 Ni  Co  Ni  Co  Ni  Co  H  
   3   1   3   1   3   1   1
Cartesian
  0.0000000000000000  0.0000000000000000  9.9999994041347833
 -1.2508089114841299  2.1664643466860327  9.9999994041347833
  1.2508089114841299  2.1664643466860327  9.9999994041347833
  2.5016178229682597  0.0000000000000000  9.9999994041347833
  2.5016178254698778  1.4443095630130456 12.0425616477852344
  1.2508089139857477  3.6107739096990783 12.0425616477852344
 -1.2508089089825121  3.6107739096990783 12.0425616477852344
  0.0000000025016178  1.4443095630130456 12.0425616477852344
  0.0192397300389340  2.8927443557825465 14.0890317508606380
  1.2639138240710857  0.7366712560206734 14.0890407827818738
  3.7798327332045321  0.7378723568532622 14.0418480790899309
  2.4967151423523353  2.8858403668598873 14.0774973853143894
 -1.2285154415589914  3.6236640432592795 15.0230886709263238
