Co Tc Co Tc Co Tc  H 
 1.0000000000000000
     5.0567196421516227    0.0000000000000000    0.0000000000000000
    -2.5283598210758114    4.3792476900942123    0.0000000000000000
     0.0000000000000000    0.0000000000000000   24.1287932924800792
 Co  Tc  Co  Tc  Co  Tc  H  
   3   1   3   1   3   1   1
Cartesian
  0.0000000000000000  0.0000000000000000  9.9999994650661037
 -1.2641799105379057  2.1896238450471062  9.9999994650661037
  1.2641799105379057  2.1896238450471062  9.9999994650661037
  2.5283598210758114  0.0000000000000000  9.9999994650661037
  2.5283598236041711  1.4597492285716549 12.0643966462400396
  1.2641799130662656  3.6493730736187611 12.0643966462400396
 -1.2641799080095457  3.6493730736187611 12.0643966462400396
  0.0000000025283597  1.4597492285716549 12.0643966462400396
  0.0298968890507698  2.9055072162152187 14.0903210456001524
  1.2918153915825883  0.7140188582923301 14.0787101496238467
  3.8197325979881223  0.7109551716423217 14.0903688206108733
  2.5170089089457601  2.9260717210638845 14.1349846001666126
 -1.0876203623250376  2.0877474791634607 15.1214221259598158
