Ni Zr Ni Zr Ni Zr  H 
 1.0000000000000000
     5.3280216229524218    0.0000000000000000    0.0000000000000000
    -2.6640108114762109    4.6142026734671768    0.0000000000000000
     0.0000000000000000    0.0000000000000000   24.3503102768040058
 Ni  Zr  Ni  Zr  Ni  Zr  H  
   3   1   3   1   3   1   1
Cartesian
  0.0000000000000000  0.0000000000000000  9.9999993394067346
 -1.3320054057381054  2.3071013367335884  9.9999993394067346
  1.3320054057381054  2.3071013367335884  9.9999993394067346
  2.6640108114762109  0.0000000000000000  9.9999993394067346
  2.6640108141402217  1.5380675562843247 12.1751551384020029
  1.3320054084021162  3.8451688930179131 12.1751551384020029
 -1.3320054030740947  3.8451688930179131 12.1751551384020029
  0.0000000026640108  1.5380675562843247 12.1751551384020029
  0.0450570595451134  3.0821718462411307 14.3079026805222931
  1.4091286093067092  0.7242867794514692 14.2564546144601518
  4.0131632613309458  0.7266599653988923 14.3079306833791122
  2.7049750579712750  3.0522568582861989 14.3602392163555024
 -0.8216574632978447  2.0122817710382503 15.2800549470420997
