Fe  W Fe  W Fe  W  H 
 1.0000000000000000
     5.1455666358641965    0.0000000000000000    0.0000000000000000
    -2.5727828179321333    4.4561906846491954    0.0000000000000000
     0.0000000000000000    0.0000000000000000   24.2013362873464359
 Fe  W   Fe  W   Fe  W   H  
   3   1   3   1   3   1   1
Cartesian
  0.0000000000000000  0.0000000000000000  9.9999994627351061
 -1.2863914089660666  2.2280953423245977  9.9999994627351061
  1.2863919089660316  2.2280953423245977  9.9999994627351061
  2.5727833179320982  0.0000000000000000  9.9999994627351061
  2.5727834871715363  1.4853968933976682 12.1006681436732180
  1.2863920782054699  3.7134922357222662 12.1006681436732180
 -1.2863912397266286  3.7134922357222662 12.1006681436732180
  0.0000001692394380  1.4853968933976682 12.1006681436732180
  0.0200156322545750  2.9866858818092386 14.2385280103388823
  1.3171689947418295  0.7437023573891300 14.2369676775844276
  3.8485717393195187  0.7340813926828748 14.2018483198537631
  2.5583210078548304  2.9543955620996631 14.1483859707068191
 -1.2114772340634294  3.7544899386610737 15.3100556062027859
