Mn Mo Mn Mo Mn Mo  H 
 1.0000000000000000
     5.2420116290390828    0.0000000000000000    0.0000000000000000
    -2.6210058145195414    4.5397146787384619    0.0000000000000000
     0.0000000000000000    0.0000000000000000   24.2800832817737557
 Mn  Mo  Mn  Mo  Mn  Mo  H  
   3   1   3   1   3   1   1
Cartesian
  0.0000000000000000  0.0000000000000000  9.9999994465662461
 -1.3105029072597707  2.2698573393692310  9.9999994465662461
  1.3105029072597707  2.2698573393692310  9.9999994465662461
  2.6210058145195414  0.0000000000000000  9.9999994465662461
  2.6210058171405475  1.5132382247329157 12.1400416408868779
  1.3105029098807766  3.7830955641021466 12.1400416408868779
 -1.3105029046387648  3.7830955641021466 12.1400416408868779
  0.0000000026210057  1.5132382247329157 12.1400416408868779
 -0.1364872737355465  3.0895748154108360 14.3292559327100086
  1.1885608685978188  0.8253685310325571 14.3506278690167068
  3.8080275577359171  0.8412550128664950 14.3292882737809393
  2.4638026874473118  3.1160165015897294 14.1506222369084238
 -0.1340765669435608  1.5899398048553277 15.3545116582230907
