Fe Mo Fe Mo Fe Mo  H 
 1.0000000000000000
     5.1418766361253265    0.0000000000000000    0.0000000000000000
    -2.5709378180626983    4.4529956848752956    0.0000000000000000
     0.0000000000000000    0.0000000000000000   24.1983232875596563
 Fe  Mo  Fe  Mo  Fe  Mo  H  
   3   1   3   1   3   1   1
Cartesian
  0.0000000000000000  0.0000000000000000  9.9999994214514576
 -1.2854689090313491  2.2264978424376478  9.9999994214514576
  1.2854694090313141  2.2264978424376478  9.9999994214514576
  0.0000004999999650  4.4529956848752956  9.9999994214514576
  2.5709384873002565  1.4843318934741001 12.0991616437798282
  1.2854695782689074  3.7108297359117479 12.0991616437798282
 -1.2854687397937561  3.7108297359117479 12.0991616437798282
  0.0000001692375931  1.4843318934741001 12.0991616437798282
  0.0729981015301326  2.9524005694668856 14.1963694643295550
  1.3845020601921012  0.6850196845864839 14.1785481735746135
  3.9069839218057640  0.6870232610119409 14.1962401242915846
  2.6119921065171039  2.9449511752506363 14.1728538483369082
 -1.0329656453449974  2.0808723483593727 15.2394337613466533
