Fe  V Fe  V Fe  V  H 
 1.0000000000000000
     5.1062616386456892    0.0000000000000000    0.0000000000000000
    -2.5531308193228446    4.4221516870580295    0.0000000000000000
     0.0000000000000000    0.0000000000000000   24.1692432896175582
 Fe  V   Fe  V   Fe  V   H  
   3   1   3   1   3   1   1
Cartesian
  0.0000000000000000  0.0000000000000000  9.9999992508970017
 -1.2765654096614223  2.2110758435290148  9.9999992508970017
  1.2765654096614223  2.2110758435290148  9.9999992508970017
  2.5531308193228446  0.0000000000000000  9.9999992508970017
  2.5531308218759752  1.4740505608786261 12.0846216448087791
  1.2765654122145529  3.6851264044076406 12.0846216448087791
 -1.2765654071082917  3.6851264044076406 12.0846216448087791
  0.0000000025531307  1.4740505608786261 12.0846216448087791
  0.1634534801108349  3.0551319935257526 14.2295685364319802
  1.4511425794826098  0.8247773198132330 14.2294811162790005
  3.9961504267252290  0.8328302039663714 14.1753643920295449
  2.6903006116724359  3.0270025053361578 14.1946065175513834
 -1.0225434510907312  3.8314492525193944 15.3021004597277201
