Co Tc Co Tc Co Tc  H 
 1.0000000000000000
     5.0567196421516227    0.0000000000000000    0.0000000000000000
    -2.5283598210758114    4.3792476900942123    0.0000000000000000
     0.0000000000000000    0.0000000000000000   24.1287932924800792
 Co  Tc  Co  Tc  Co  Tc  H  
   3   1   3   1   3   1   1
Cartesian
  0.0000000000000000  0.0000000000000000  9.9999992923310419
 -1.2641799105379057  2.1896238450471062  9.9999992923310419
  1.2641799105379057  2.1896238450471062  9.9999992923310419
  2.5283598210758114  0.0000000000000000  9.9999992923310419
  2.5283598210758114  1.4597491966980733 12.0643964462400533
  1.2641799105379057  3.6493730417451800 12.0643964462400533
 -1.2641799105379057  3.6493730417451800 12.0643964462400533
  0.0000000000000000  1.4597491966980733 12.0643964462400533
  0.0003654999741347  2.9276671928180660 14.0860839031714971
  1.2713679100292332  0.7259700486253495 14.0864282031471326
  3.7855171321106846  0.7256422486485470 14.0858873031854106
  2.5286725210536827  2.9195813933902732 14.2105702943619807
  2.5283411210771347  2.9195533933922544 15.8878192756682708
