Ru Ir Ru Ir Ru Ir Ru  H 
 1.0000000000000000
     5.4243396161362964    0.0000000000000000    0.0000000000000000
     2.7121698080681482    4.6976156675642979    0.0000000000000000
     0.0000000000000000    0.0000000000000000   24.4289532712386865
 Ru  Ir  Ru  Ir  Ru  Ir  Ru  H  
   1   1   3   1   3   1   2   1
Cartesian
  0.0000000000000000  0.0000000000000000  9.9999992036938181
  1.3560849040340741  2.3488078337821490  9.9999992036938181
  2.7121698080681482  0.0000000000000000  9.9999992036938181
  4.0682547121022221  2.3488078337821490  9.9999992036938181
  5.4243396188484656  3.1317437799420706 12.2144766356193433
  4.0682547148143922  0.7829359461599215 12.2144766356193433
  2.7121698107803178  3.1317437799420706 12.2144766356193433
  1.3560849067462439  0.7829359461599215 12.2144766356193433
  2.7115771691312176  1.5661630458413032 14.3539196581299411
  4.0683561282678555  3.9145082584325102 14.3296508366473958
  5.4249373892106734  1.5661775755665628 14.3540150287635111
  6.7803981253337984  3.9140788728724165 14.3539988079385399
  1.3559349942722727  2.3491259422223094 15.4322510806788298
