Fe Ta Fe Ta Fe Ta  H 
 1.0000000000000000
     5.2427476289869981    0.0000000000000000    0.0000000000000000
    -2.6213738144934990    4.5403526786933117    0.0000000000000000
     0.0000000000000000    0.0000000000000000   24.2806842817312223
 Fe  Ta  Fe  Ta  Fe  Ta  H  
   3   1   3   1   3   1   1
Cartesian
  0.0000000000000000  0.0000000000000000  9.9999992872559496
 -1.3106869072467495  2.2701763393466559  9.9999992872559496
  1.3106869072467495  2.2701763393466559  9.9999992872559496
  2.6213738144934990  0.0000000000000000  9.9999992872559496
  2.6213738171148728  1.5134508913843197 12.1403421408656111
  1.3106869098681231  3.7836272307309757 12.1403421408656111
 -1.3106869046253760  3.7836272307309757 12.1403421408656111
  0.0000000026213738  1.5134508913843197 12.1403421408656111
  0.1538168914242612  2.9843146231272417 14.3194027308240770
  1.4831702162620684  0.6572699805499744 14.2471071147786432
  4.0459181509347770  0.6449819019550685 14.3193939897777369
  2.7546526719865096  2.9501087048113144 14.2434613700337422
 -0.9644348382745773  2.0703477493016886 15.3423728230341183
