Ag Al Ag Al Ag Al Ag Al Ag Al Ag  H 
 1.0000000000000000
     5.8177535882956084    0.0000000000000000    0.0000000000000000
     2.9085917941679731    5.0381576434651976    0.0000000000000000
     0.0000000000000000    0.0000000000000000   24.7500962485123956
 Ag  Al  Ag  Al  Ag  Al  Ag  Al  Ag  Al  Ag  H  
   1   1   1   2   1   1   1   1   1   1   1   1
Cartesian
  1.4540108602749717  0.8399123439459764  9.9999991633833538
  4.3628876544227762  0.8399123439459764  9.9999991633833538
  2.9083067573589583  3.3589911656785754  9.9999991633833538
  5.8171835515067620  3.3589911656785754  9.9999991633833538
  2.9085917713902085  1.6794955803202087 12.3750481242561978
  5.8174685655380127  1.6794955803202087 12.3750481242561978
  4.3628876684741957  4.1985744020528077 12.3750481242561978
  7.2717644626219986  4.1985744020528077 12.3750481242561978
 -0.0606753580575910  0.0573654705600234 14.7868014283653935
  2.9779453253253743 -0.0484503045033401 14.9987500408440511
  1.5004630339617275  2.5692954488860038 14.7230302808712850
  4.3637133986211101  2.4537802882998054 14.8043427620803723
  1.2012253518380787 -0.1029354603385945 15.9298075023030279
