Zn Sn Zn Sn Zn Sn Zn  H 
 1.0000000000000000
     6.0012035753134221    0.0000000000000000    0.0000000000000000
     3.0006017876567110    5.1971946322106426    0.0000000000000000
     0.0000000000000000    0.0000000000000000   24.8999612379069113
 Zn  Sn  Zn  Sn  Zn  Sn  Zn  H  
   1   1   3   1   3   1   2   1
Cartesian
  0.0000000000000000  0.0000000000000000  9.9999993802710723
  1.5003008938283555  2.5985973161053213  9.9999993802710723
  3.0006017876567110  0.0000000000000000  9.9999993802710723
  4.5009026814850666  2.5985973161053213  9.9999993802710723
  6.0012035783140236  3.4647964232061601 12.4499806189534556
  4.5009026844856681  0.8661991071008386 12.4499806189534556
  3.0006017906573126  3.4647964232061601 12.4499806189534556
  1.5003008968289571  0.8661991071008386 12.4499806189534556
  2.7354743958590086  1.6209992940695988 14.9002051551570940
  4.1202330520382207  4.1122482172289585 15.0337211626109912
  6.1096819462641543  1.7943119728824375 14.7573371206616173
  7.2730149352736682  4.1582485921158492 14.9006350280879065
  6.5815019694379107  5.5319793876159826 15.7648460254594216
