Rh In Rh In Rh In Rh  H 
 1.0000000000000000
     5.6378716010252994    0.0000000000000000    0.0000000000000000
     2.0843068525000636    5.2384406292917918    0.0000000000000000
     0.0000000000000000    0.0000000000000000   24.6508302555371408
 Rh  In  Rh  In  Rh  In  Rh  H  
   1   2   2   2   2   2   1   1
Cartesian
  0.0000000000000000  0.0000000000000000  9.9999992692932835
  1.0421534262500318  2.6192203146458959  9.9999992692932835
  2.8189358005126497  0.0000000000000000  9.9999992692932835
  3.8610892267626813  2.6192203146458959  9.9999992692932835
  5.6378713440465811  3.8245236741311901 12.3254151277685704
  4.5957179177965495  1.2053033594852938 12.3254151277685704
  2.8189355435339314  3.8245236741311901 12.3254151277685704
  1.7767821172838991  1.2053033594852938 12.3254151277685704
  3.7162874610421288  2.4290557053855371 14.5655829427358938
  4.6462614732812000  5.0640451826120962 14.7911543091220263
  6.5677580990307600  2.5430474475043194 14.7817885959288891
  7.4919935029100735  5.1745537860260908 14.5653893597658950
  4.5869391509298456  1.1990674673757784 15.5602958581953335
