Co Pt Co Pt Co Pt  H 
 1.0000000000000000
     5.3517796212711426    0.0000000000000000    0.0000000000000000
     2.6100178152971285    4.6721886693636883    0.0000000000000000
     0.0000000000000000    0.0000000000000000   24.3864172742488279
 Co  Pt  Co  Pt  Co  Pt  H  
   2   2   2   2   2   2   1
Cartesian
  0.0000000000000000  0.0000000000000000  9.9999992923310419
  3.9808986182841424  2.3360944346818369  9.9999992923310419
  2.6758897106355786  0.0000000000000000  9.9999992923310419
  1.3050089076485643  2.3360944346818369  9.9999992923310419
  5.3517793212711631  3.1405628777520986 12.1932088371244003
  1.3708808029870141  0.8044683430702686 12.1932088371244003
  2.6758897106355786  3.1405628777520986 12.1932088371244003
  4.0467705136225929  0.8044683430702686 12.1932088371244003
  2.7416588059813032  1.6023056866097922 14.3291351859715128
  6.7174129246295058  3.9489637205440764 14.3303552858851688
  5.4354252153518035  1.6202752853381395 14.3939322813860233
  4.1037961095870683  3.9775983185176944 14.3566310840257128
  1.3450200048171026  2.3592960330399317 15.3407669143814704
