Co Pt Co Pt Co Pt Co  H 
 1.0000000000000000
     5.3517796212711426    0.0000000000000000    0.0000000000000000
     2.6100178152971285    4.6721886693636883    0.0000000000000000
     0.0000000000000000    0.0000000000000000   24.3864172742488279
 Co  Pt  Co  Pt  Co  Pt  Co  H  
   1   2   2   2   2   2   1   1
Cartesian
  0.0000000000000000  0.0000000000000000  9.9999991534591715
  1.3050089076485643  2.3360943346818441  9.9999991534591715
  2.6758898106355713  0.0000000000000000  9.9999991534591715
  3.9808987182841356  2.3360943346818441  9.9999991534591715
  5.3517795519004885  3.1405626659724839 12.1932086371244139
  4.0467706442519233  0.8044683312906394 12.1932086371244139
  2.6758897412649163  3.1405626659724839 12.1932086371244139
  1.3708808336163520  0.8044683312906394 12.1932086371244139
  2.7069069145785289  1.5884371965128237 14.3016593720447460
  4.0914250179912139  3.9461223691422114 14.4142229041053227
  5.4402873168512738  1.6475311696242181 14.4141938111095165
  6.6700318695030267  3.9141064112060753 14.3241125073167446
  0.0898327161583111  0.0529574037083357 15.2970471306257778
