Al Cu Al Cu Al Cu  H 
 1.0000000000000000
     5.2635946275117211    0.0000000000000000    0.0000000000000000
     2.2674918395366297    4.7501486638467014    0.0000000000000000
     0.0000000000000000    0.0000000000000000   24.3580632762553542
 Al  Cu  Al  Cu  Al  Cu  H  
   2   2   2   2   2   2   1
Cartesian
  0.0000000000000000  0.0000000000000000  9.9999992923310419
  3.7655433335241684  2.3750743319233507  9.9999992923310419
  2.6317974137558537  0.0000000000000000  9.9999992923310419
  1.1337459197683148  2.3750743319233507  9.9999992923310419
  5.2635948275117075  3.3199535650571752 12.1790314381276890
  1.4980514939875385  0.9448792331338250 12.1790314381276890
  2.6317974137558537  3.3199535650571752 12.1790314381276890
  4.1298490077433847  0.9448792331338250 12.1790314381276890
  2.9744460895076688  1.8630803681555763 14.4359087784154756
  6.7282310238639420  4.2567858987604543 14.4359126784151997
  5.5830030049081802  1.8613916682750804 14.4340313785483332
  4.0870287107736445  4.2378879000978076 14.3329924856985436
  5.6112506029091858  1.8793405670048926 15.9724047696824165
