Zn Pb Zn Pb Zn Pb Zn  H 
 1.0000000000000000
     6.4146205460571846    0.0000000000000000    0.0000000000000000
     2.1822388455697204    6.0320145731330230    0.0000000000000000
     0.0000000000000000    0.0000000000000000   25.2503592131103360
 Zn  Pb  Zn  Pb  Zn  Pb  Zn  H  
   1   2   2   2   2   2   1   1
Cartesian
  0.0000000000000000  0.0000000000000000  9.9999991950826672
  1.0911194227848602  3.0160072865665115  9.9999991950826672
  3.2073102730285923  0.0000000000000000  9.9999991950826672
  4.2984296958134527  3.0160072865665115  9.9999991950826672
  6.4146204906814486  4.5008394947804033 12.6251796065551680
  5.3235010678965891  1.4848322082138914 12.6251796065551680
  3.2073102176528563  4.5008394947804033 12.6251796065551680
  2.1161907948679963  1.4848322082138914 12.6251796065551680
  4.2885886037318617  2.6349348322609929 15.4199941532529543
  4.7289006915490024  5.5674159263271896 15.3326742952854662
  7.7987858029289185  3.2209092178743020 15.1801198060362399
  8.2279076366648791  6.1475522145718626 15.4207711068059439
  5.0999405849602599  1.3253241784481553 16.2537586156857330
