Tc Tl Tc Tl Tc Tl  H 
 1.0000000000000000
     5.7888225903429662    0.0000000000000000    0.0000000000000000
     1.9384958628186555    5.4546036139946068    0.0000000000000000
     0.0000000000000000    0.0000000000000000   24.7292442499880245
 Tc  Tl  Tc  Tl  Tc  Tl  H  
   2   2   2   2   2   2   1
Cartesian
  0.0000000000000000  0.0000000000000000  9.9999992923310419
  3.8636589265808321  2.7273016069973179  9.9999992923310419
  2.8944110951714968  0.0000000000000000  9.9999992923310419
  0.9692478314093349  2.7273016069973179  9.9999992923310419
  5.7888221903429935  4.0862469108289705 12.3646223249939986
  1.9251632637621623  1.3589452038316596 12.3646223249939986
  2.8944110951714968  4.0862469108289705 12.3646223249939986
  4.8195743589336599  1.3589452038316596 12.3646223249939986
  3.8481929276753126  2.7125204080433374 14.5027989736818643
  7.7083925545009491  5.4447046146951283 14.5030172736664156
  6.7462422225893457  2.7156095078247313 15.0025016383194565
  4.8142877593077751  5.4449559146773456 14.9840168396275661
  6.7423099228676229  2.7163571077718260 16.8109995103376662
