Co  W Co  W Co  W Co  H 
 1.0000000000000000
     5.2913826255452507    0.0000000000000000    0.0000000000000000
     2.5978778161562386    4.6097466737825137    0.0000000000000000
     0.0000000000000000    0.0000000000000000   24.3327592780460407
 Co  W   Co  W   Co  W   Co  H  
   1   2   2   2   2   2   1   1
Cartesian
  0.0000000000000000  0.0000000000000000  9.9999993819838497
  1.2989389080781193  2.3048733368912568  9.9999993819838497
  2.6456913127726254  0.0000000000000000  9.9999993819838497
  3.9446302208507449  2.3048733368912568  9.9999993819838497
  5.2913827079849494  3.0917896573564354 12.1663796390230203
  3.9924437999068298  0.7869163204651787 12.1663796390230203
  2.6456913952123235  3.0917896573564354 12.1663796390230203
  1.3467524871342043  0.7869163204651787 12.1663796390230203
  2.7326611401892134  1.5966892262286665 14.2533718113088792
  4.0499802376995788  3.9066298179315857 14.2575490890924179
  5.3917569338690514  1.6104697227886855 14.2575445631991915
  6.6407219199231378  3.8802932380645578 14.2852117621449057
 -0.0915518947114272 -0.0532817477094218 15.3662036691913109
