Co  W Co  W Co  W Co  H 
 1.0000000000000000
     5.2913826255452507    0.0000000000000000    0.0000000000000000
     2.5978778161562386    4.6097466737825137    0.0000000000000000
     0.0000000000000000    0.0000000000000000   24.3327592780460407
 Co  W   Co  W   Co  W   Co  H  
   1   2   2   2   2   2   1   1
Cartesian
  0.0000000000000000  0.0000000000000000  9.9999993819838497
  1.2989389080781193  2.3048733368912568  9.9999993819838497
  2.6456913127726254  0.0000000000000000  9.9999993819838497
  3.9446302208507449  2.3048733368912568  9.9999993819838497
  5.2913827079849494  3.0917896573564354 12.1663796390230203
  3.9924437999068298  0.7869163204651787 12.1663796390230203
  2.6456913952123235  3.0917896573564354 12.1663796390230203
  1.3467524871342043  0.7869163204651787 12.1663796390230203
  2.7722242677967595  1.6198793082598375 14.3001242639977715
  4.0460633074412984  3.8975185983138942 14.2658134674536132
  5.3818239974768414  1.6113770730557262 14.2658136864484462
  6.6842733503488834  3.9056861474705022 14.2674751759174683
  1.5624978738174802  0.9130572624956832 15.3842219801056661
