 V Zn  V Zn  V Zn  V  H 
 1.0000000000000000
     5.1524906353742068    0.0000000000000000    0.0000000000000000
    -2.5762448176871389    4.8729686551551108    0.0000000000000000
     0.0000000000000000    0.0000000000000000   24.3735392751601623
 V   Zn  V   Zn  V   Zn  V   H  
   1   2   2   2   2   2   1   1
Cartesian
  0.0000000000000000  0.0000000000000000  9.9999994336399656
 -1.2881224088435694  2.4364843275775554  9.9999994336399656
  1.2881229088435340  2.4364843275775554  9.9999994336399656
  2.5762453176871034  0.0000000000000000  9.9999994336399656
  2.5762454574387985  1.3620113559389675 12.1867696375800811
  1.2881230485952293  3.7984956835165229 12.1867696375800811
 -1.2881222690918741  3.7984956835165229 12.1867696375800811
  0.0000001397516951  1.3620113559389675 12.1867696375800811
 -0.0399515254772427  2.6680778447952540 14.2788343585421860
  1.2881752846385077  0.3094022982381133 14.4681034948731657
  3.8647438053073850  0.2353010813081927 14.4801612309938239
  2.6168336047747500  2.6680592592928032 14.2788480808447957
 -1.2877298283884231  2.9821575204726414 15.5269471481886470
