La Pb La Pb La Pb  H 
 1.0000000000000000
     7.2506494868940070    0.0000000000000000    0.0000000000000000
    -3.6253247434470035    6.2792465556371821    0.0000000000000000
     0.0000000000000000    0.0000000000000000   25.9201291657127904
 La  Pb  La  Pb  La  Pb  H  
   3   1   3   1   3   1   1
Cartesian
  0.0000000000000000  0.0000000000000000  9.9999992923310419
 -1.8126623717235018  3.1396233778185842  9.9999992923310419
  1.8126623717235018  3.1396233778185842  9.9999992923310419
  3.6253248434469962  0.0000000000000000  9.9999992923310419
  3.6253248434469962  2.0930822518790562 12.9600645828563952
  1.8126623717235018  5.2327056296976400 12.9600645828563952
 -1.8126623717235018  5.2327056296976400 12.9600645828563952
  0.0000000000000000  2.0930822518790562 12.9600645828563952
  0.0000940999933408  4.1659640051876385 15.9247382730556257
  1.7947103729939091  1.0577123251489768 15.9247111730575437
  5.4563052138741908  1.0577699251449006 15.9247667730536104
  3.6253940434420993  4.1862745037503268 15.8656094772399889
  3.6254603434374073  0.0009360999337551 17.1533863861080071
