 V Zn  V Zn  V Zn  V  H 
 1.0000000000000000
     5.1524906353742068    0.0000000000000000    0.0000000000000000
    -2.5762448176871389    4.8729686551551108    0.0000000000000000
     0.0000000000000000    0.0000000000000000   24.3735392751601623
 V   Zn  V   Zn  V   Zn  V   H  
   1   2   2   2   2   2   1   1
Cartesian
  0.0000000000000000  0.0000000000000000  9.9999994336399656
 -1.2881224088435694  2.4364843275775554  9.9999994336399656
  1.2881229088435340  2.4364843275775554  9.9999994336399656
  2.5762453176871034  0.0000000000000000  9.9999994336399656
  2.5762454574387985  1.3620113559389675 12.1867696375800811
  1.2881230485952293  3.7984956835165229 12.1867696375800811
 -1.2881222690918741  3.7984956835165229 12.1867696375800811
  0.0000001397516951  1.3620113559389675 12.1867696375800811
 -0.0000556036034898  2.6314515988056275 14.2275873348154889
  1.2651484238113793  0.1946481600027210 14.5476307462442040
  3.8869013606328573  0.1948478883689898 14.5476383264149174
  2.5762913028810184  2.6035738031885391 14.3126437723181734
  2.5751497344413643  1.2665363726234922 15.5007695282834188
