La Rh La Rh La Rh  H 
 1.0000000000000000
     6.2734995560438795    0.0000000000000000    0.0000000000000000
     2.0940078518135543    5.9137065815053127    0.0000000000000000
     0.0000000000000000    0.0000000000000000   25.1231572221120274
 La  Rh  La  Rh  La  Rh  H  
   2   2   2   2   2   2   1
Cartesian
  0.0000000000000000  0.0000000000000000  9.9999992923310419
  4.1837539039287028  2.9568532907526563  9.9999992923310419
  3.1367497780219398  0.0000000000000000  9.9999992923310419
  1.0470041259067628  2.9568532907526563  9.9999992923310419
  6.2734994560438864  4.4337735862355849 12.5615784110560273
  2.0897455521151835  1.4769202954829279 12.5615784110560273
  3.1367497780219398  4.4337735862355849 12.5615784110560273
  5.2264953301371238  1.4769202954829279 12.5615784110560273
  4.1808488041342873  2.9547438909019323 15.3558474133142706
  8.3667982079076211  5.9128279815674896 15.2528165206054460
  7.3161407822593914  2.9534839909910917 14.7474474563688496
  5.2240105303129649  5.9097079817882818 14.7476420563550779
  4.1796606042183724  2.9539921909551277 17.4917691621617060
