 V Pt  V Pt  V Pt  H 
 1.0000000000000000
     5.4175476166169449    0.0000000000000000    0.0000000000000000
    -2.7087738083084725    4.7600336631471700    0.0000000000000000
     0.0000000000000000    0.0000000000000000   24.4548032694093642
 V   Pt  V   Pt  V   Pt  H  
   2   2   2   2   2   2   1
Cartesian
  0.0000000000000000  0.0000000000000000  9.9999992923310419
  2.7087740083084588  0.0000000000000000  9.9999992923310419
  1.3543870041542294  2.3800168315735850  9.9999992923310419
 -1.3543870041542294  2.3800168315735850  9.9999992923310419
  2.7087740083084588  1.5414714909148399 12.2274018347046685
  0.0000000000000000  1.5414714909148399 12.2274018347046685
 -1.3543870041542294  3.9214883224884249 12.2274018347046685
  1.3543870041542294  3.9214883224884249 12.2274018347046685
 -0.0000054999996108  3.0920868811825946 14.3565486840315444
  2.7087905083072910  3.1506704770368148 14.3402170851872803
  4.0689329120542279  0.8697673384492610 14.4615046766041324
  1.3486154045626675  0.8697550384501315 14.4615445766013089
  0.0000358999974595  4.7245312656595644 15.4232592085437457
