Zr Pt Zr Pt Zr Pt  H 
 1.0000000000000000
     5.8246285878090864    0.0000000000000000    0.0000000000000000
     1.8008708725579496    5.5392386080052516    0.0000000000000000
     0.0000000000000000    0.0000000000000000   24.7052962516827499
 Zr  Pt  Zr  Pt  Zr  Pt  H  
   2   2   2   2   2   2   1
Cartesian
  0.0000000000000000  0.0000000000000000  9.9999992923310419
  3.8127494301835392  2.7696193040026258  9.9999992923310419
  2.9123142939045432  0.0000000000000000  9.9999992923310419
  0.9004352362789890  2.7696193040026258  9.9999992923310419
  5.8246285878090864  4.2310683005804099 12.3526483258413613
  2.0118790576255545  1.4614489965777839 12.3526483258413613
  2.9123142939045432  4.2310683005804099 12.3526483258413613
  4.9241933515300973  1.4614489965777839 12.3526483258413613
  3.9979963170741915  2.7805410032297306 14.7748296544310964
  0.0679878951887074  0.1719792878295588 14.7748610544288734
  1.2046516147505388  2.9895742884370926 14.4577097768726865
  4.6547672705965457  5.4966063110222070 14.4622745765496497
  4.9391441504720763  1.4717139958513616 15.9957048680335401
