Co  W Co  W Co  W Co  H 
 1.0000000000000000
     5.2913826255452507    0.0000000000000000    0.0000000000000000
     2.5978778161562386    4.6097466737825137    0.0000000000000000
     0.0000000000000000    0.0000000000000000   24.3327592780460407
 Co  W   Co  W   Co  W   Co  H  
   1   2   2   2   2   2   1   1
Cartesian
  0.0000000000000000  0.0000000000000000  9.9999993819838497
  1.2989389080781193  2.3048733368912568  9.9999993819838497
  2.6456913127726254  0.0000000000000000  9.9999993819838497
  3.9446302208507449  2.3048733368912568  9.9999993819838497
  5.2913827079849494  3.0917896573564354 12.1663796390230203
  3.9924437999068298  0.7869163204651787 12.1663796390230203
  2.6456913952123235  3.0917896573564354 12.1663796390230203
  1.3467524871342043  0.7869163204651787 12.1663796390230203
  2.7247480424876116  1.5921809585181608 14.2928024880654867
  4.0395411267294241  3.9062731111242219 14.2397037840965286
  5.3987152938654219  1.6086330614214503 14.2629314467792039
  6.6694310561496906  3.8970896844346323 14.2928322956956038
  3.9119783773806920  0.7401163421635092 15.2635729571083694
