Ag In Ag In Ag In  H 
 1.0000000000000000
     6.3048255538270359    0.0000000000000000    0.0000000000000000
     3.0602937834324933    5.5122976099117826    0.0000000000000000
     0.0000000000000000    0.0000000000000000   25.1709142187324098
 Ag  In  Ag  In  Ag  In  H  
   2   2   2   2   2   2   1
Cartesian
  0.0000000000000000  0.0000000000000000  9.9999992923310419
  4.6825595686297721  2.7561490049558768  9.9999992923310419
  3.1524127769135180  0.0000000000000000  9.9999992923310419
  1.5301467917162539  2.7561490049558768  9.9999992923310419
  6.3048255538270359  3.7110127373831299 12.5854571093662049
  1.6222659851972641  0.9548638324272459 12.5854571093662049
  3.1524127769135180  3.7110127373831299 12.5854571093662049
  4.7746787621107822  0.9548638324272459 12.5854571093662049
  3.2147248725038837  1.8921856660958847 15.1600422271707949
  7.9070286404440884  4.6540370706482204 15.0498468349689816
  6.4166155459160041  1.9100357648326884 15.3289846152152673
  4.7844479614194464  4.6828840686068078 15.3292460151967678
  3.2194703721680598  1.8949736658985865 16.8655788064752592
