Tl Cu Tl Cu Tl Cu Tl  H 
 1.0000000000000000
     6.7822395200419283    0.0000000000000000    0.0000000000000000
     3.3911197600209642    5.8735915843441271    0.0000000000000000
     0.0000000000000000    0.0000000000000000   25.5376741927779456
 Tl  Cu  Tl  Cu  Tl  Cu  Tl  H  
   1   1   3   1   3   1   2   1
Cartesian
  0.0000000000000000  0.0000000000000000  9.9999994038892979
  1.6955598800104821  2.9367957921720635  9.9999994038892979
  3.3911197600209642  0.0000000000000000  9.9999994038892979
  5.0866796400314467  2.9367957921720635  9.9999994038892979
  6.7822395234330486  3.9157277248539484 12.7688370963889728
  5.0866796434225661  0.9789319326818849 12.7688370963889728
  3.3911197634120840  3.9157277248539484 12.7688370963889728
  1.6955598834016019  0.9789319326818849 12.7688370963889728
  3.4454913058222187  1.9239615769692178 15.6210583596489698
  5.0874692995698840  4.8937003414431377 14.9995042112457675
  6.7266658901081424  1.9281241678306762 15.6210277655152883
  8.4782978675281768  4.9591218670338675 15.6209058997340389
  1.6947680637198768  2.9369101216322533 16.5840854580307067
