Zr Mn Zr Mn Zr Mn Zr Mn  H 
 1.0000000000000000
     5.5507676071893792    0.0000000000000000    0.0000000000000000
     1.8493468691274537    5.2336346296318972    0.0000000000000000
     0.0000000000000000    0.0000000000000000   24.5319022639533060
 Zr  Mn  Zr  Mn  Zr  Mn  Zr  Mn  H  
   2   2   1   1   1   1   2   2   1
Cartesian
  6.4740773856579832  2.6158528867945732  9.9999992758244183
  4.6233670166270198  5.2326702016105218  9.9999992758244183
  7.3987508202217107  5.2326702016105218  9.9999992758244183
  3.6986935820632931  2.6158528867945732  9.9999992758244183
  4.6247305983263933  1.3079264460141040 12.2659511319766530
  1.8493467947317037  1.3079264460141040 12.2659511319766530
  2.7740202292954308  3.9247437608300526 12.2659511319766530
  5.5494040328901200  3.9247437608300526 12.2659511319766530
  4.6200277979698257  5.2302567633374135 14.6036199437177654
  0.9278154276347118  2.6190462674683626 14.6035279000204703
  3.7168193228363338  2.5910441450078259 14.4501203477220859
 -0.0187098714867014  0.0244216935713474 14.4500627222836702
  4.6244063514109568  1.3076320540661872 15.4329173671567794
