Fe Ni Fe Ni Fe Ni Fe  H 
 1.0000000000000000
     5.0522656424668186    0.0000000000000000    0.0000000000000000
    -2.5261328212334093    4.3968546888482205    0.0000000000000000
     0.0000000000000000    0.0000000000000000   24.1351882920275251
 Fe  Ni  Fe  Ni  Fe  Ni  Fe  H  
   1   2   2   2   2   2   1   1
Cartesian
  0.0000000000000000  0.0000000000000000  9.9999993229665805
 -1.2630664106167047  2.1984273444241103  9.9999993229665805
  1.2630664106167047  2.1984273444241103  9.9999993229665805
  2.5261328212334093  0.0000000000000000  9.9999993229665805
  2.5261328187072767  1.4513438481968191 12.0675941460137626
  1.2630664080905718  3.6497711926209293 12.0675941460137626
 -1.2630664131428375  3.6497711926209293 12.0675941460137626
 -0.0000000025261330  1.4513438481968191 12.0675941460137626
 -0.0001507217147789  2.9257961796289971 14.1006775806184095
  1.2627493834737729  0.7234858760983617 14.1217171413897233
  3.7893353600955844  0.7234688734612800 14.1217571816671015
  2.5260612104201927  2.9172454624256798 14.0835590708073912
 -0.0002133925439408  1.3848424894636788 15.0604957164485249
