Sc Pd Sc Pd Sc Pd Sc  H 
 1.0000000000000000
     5.7618555922513366    0.0000000000000000    0.0000000000000000
     1.9393268627598483    5.4256796160414691    0.0000000000000000
     0.0000000000000000    0.0000000000000000   24.7101332513404515
 Sc  Pd  Sc  Pd  Sc  Pd  Sc  H  
   1   2   2   2   2   2   1   1
Cartesian
  0.0000000000000000  0.0000000000000000  9.9999991514733164
  0.9696634313799242  2.7128398080207345  9.9999991514733164
  2.8809277961256683  0.0000000000000000  9.9999991514733164
  3.8505912275055927  2.7128398080207345  9.9999991514733164
  5.7618559414258677  4.0593745849534422 12.3550666256702257
  4.7921925100459433  1.3465347769327070 12.3550666256702257
  2.8809281453001985  4.0593745849534422 12.3550666256702257
  1.9112647139202745  1.3465347769327070 12.3550666256702257
  3.8428822091557420  2.6412234522665621 14.7238929738729460
  4.6974718310506702  5.3390279424760996 14.5726620410582264
  6.7704814726290081  2.7404293888683053 14.4797966653743728
  7.6312838438140167  5.4427299444511901 14.7238671270735662
  4.2068315418318196  0.9342916451315558 15.8005946771317127
