Fe Zr Fe Zr Fe Zr Fe  H 
 1.0000000000000000
     5.4830256119832699    0.0000000000000000    0.0000000000000000
     1.8134718716662159    5.1744456338205191    0.0000000000000000
     0.0000000000000000    0.0000000000000000   24.4724432681610367
 Fe  Zr  Fe  Zr  Fe  Zr  Fe  H  
   1   2   2   2   2   2   1   1
Cartesian
  0.0000000000000000  0.0000000000000000  9.9999993678646177
  0.9067359358331080  2.5872228169102596  9.9999993678646177
  2.7415128059916349  0.0000000000000000  9.9999993678646177
  3.6482487418247427  2.5872228169102596  9.9999993678646177
  5.4830257509823275  3.8883887400596158 12.2362216340805183
  4.5762898151492202  1.3011659231493562 12.2362216340805183
  2.7415129449906930  3.8883887400596158 12.2362216340805183
  1.8347770091575850  1.3011659231493562 12.2362216340805183
  3.6806647615871841  2.5679714471629995 14.3744244966917840
  2.7331420491812515 -0.0056500910253726 14.5746707531823763
  0.9403295036823252  2.6107130562996259 14.5745836312843409
 -0.0075199922106415  0.0371629979032398 14.3745265467802117
  4.5865363808621522  1.3083481054335553 15.2798139090696719
