Tc Os Tc Os Tc Os Tc  H 
 1.0000000000000000
     5.4622666134523206    0.0000000000000000    0.0000000000000000
    -2.7311338067261248    4.7399076645714242    0.0000000000000000
     0.0000000000000000    0.0000000000000000   24.4643582687331858
 Tc  Os  Tc  Os  Tc  Os  Tc  H  
   1   2   2   2   2   2   1   1
Cartesian
  0.0000000000000000  0.0000000000000000  9.9999993193452816
 -1.3655669033630624  2.3699538322857121  9.9999993193452816
  1.3655664033630979  2.3699538322857121  9.9999993193452816
  2.7311333067261603  0.0000000000000000  9.9999993193452816
  2.7311331407231143  1.5736783339129894 12.2321791343665929
  1.3655662373600519  3.9436321661987015 12.2321791343665929
 -1.3655670693661086  3.9436321661987015 12.2321791343665929
 -0.0000001660030462  1.5736783339129894 12.2321791343665929
 -0.0000448414240137  3.1486688780835617 14.3581193910967890
  1.3893841748069700  0.7875958315963438 14.3863227106328075
  4.0725943837425076  0.7873900911642555 14.3863426735491551
  2.7312761191853117  3.1185616766247226 14.3881610359061956
  2.7309926107672058  4.7792984160027387 15.4312201123635386
