Tc Os Tc Os Tc Os  H 
 1.0000000000000000
     5.4622666134523206    0.0000000000000000    0.0000000000000000
    -2.7311338067261248    4.7399076645714242    0.0000000000000000
     0.0000000000000000    0.0000000000000000   24.4643582687331858
 Tc  Os  Tc  Os  Tc  Os  H  
   2   2   2   2   2   2   1
Cartesian
  0.0000000000000000  0.0000000000000000  9.9999992923310419
  0.0000000000000000  4.7399077645714174  9.9999992923310419
  1.3655668033630695  2.3699538322857121  9.9999992923310419
 -1.3655668033630695  2.3699538322857121  9.9999992923310419
  2.7311335067261462  1.5736783886356576 12.2321791343665929
  0.0000000000000000  1.5736783886356576 12.2321791343665929
 -1.3655668033630695  3.9436322209213701 12.2321791343665929
  1.3655668033630695  3.9436322209213701 12.2321791343665929
  0.0014389998981664  3.1478574772358821 14.3543511841870526
  2.7297105068268475  3.1477141772460229 14.3543130841897497
  4.0965557100994481  0.7752976451345884 14.4322541786740999
  1.3657579033495459  0.7818292446723674 14.3395874852318350
  4.0967353100867383  0.7949039437471115 16.0982022607801163
