Ta Ir Ta Ir Ta Ir Ta  H 
 1.0000000000000000
     5.6285476016851304    0.0000000000000000    0.0000000000000000
     2.6635008115123022    4.9584586491052489    0.0000000000000000
     0.0000000000000000    0.0000000000000000   24.6306222569672002
 Ta  Ir  Ta  Ir  Ta  Ir  Ta  H  
   1   2   2   2   2   2   1   1
Cartesian
  0.0000000000000000  0.0000000000000000  9.9999993357273915
  1.3317504057561511  2.4792293245526245  9.9999993357273915
  2.8142738008425652  0.0000000000000000  9.9999993357273915
  4.1460242065987165  2.4792293245526245  9.9999993357273915
  5.6285476184286676  3.3657450161626148 12.3153111284836001
  4.2967972126725167  0.8865156916099901 12.3153111284836001
  2.8142738175861020  3.3657450161626148 12.3153111284836001
  1.4825234118299511  0.8865156916099901 12.3153111284836001
  3.0604311710207215  1.8300231879562918 14.5675919027224925
  4.3603034037080288  4.2812200847083801 14.5774444225621274
  5.8346995272910984  1.8153151401545486 14.5774052106114933
  7.1566552135625603  4.2794515958881316 14.5632260264049584
  1.4554652761333993  0.8706540584035327 15.5907185423139367
