Pd Hg Pd Hg Pd Hg Pd  H 
 1.0000000000000000
     5.8623155851420945    0.0000000000000000    0.0000000000000000
     2.5331128207394564    5.2867836258707079    0.0000000000000000
     0.0000000000000000    0.0000000000000000   24.8533362412064207
 Pd  Hg  Pd  Hg  Pd  Hg  Pd  H  
   1   2   2   2   2   2   1   1
Cartesian
  0.0000000000000000  0.0000000000000000  9.9999991812130808
  1.2665564103697282  2.6433918129353540  9.9999991812130808
  2.9311577925710472  0.0000000000000000  9.9999991812130808
  4.1977142029407757  2.6433918129353540  9.9999991812130808
  5.8623157468186946  3.6916275622400150 12.4266681206032104
  4.5957593364489666  1.0482357493046608 12.4266681206032104
  2.9311579542476469  3.6916275622400150 12.4266681206032104
  1.6646015438779185  1.0482357493046608 12.4266681206032104
  3.4011906470486819  2.1412825145274645 14.7333996559871725
  4.6790627656531392  4.7998702935289517 15.0538849925777125
  6.3509007944000695  2.1460512197919184 15.0538173417964654
  7.5789183311223089  4.7725753486711540 14.8489281527041577
 -0.6661926366556867 -0.4166492552603675 16.4281963975339558
