Tc Ru Tc Ru Tc Ru Tc  H 
 1.0000000000000000
     5.4382726151503009    0.0000000000000000    0.0000000000000000
    -2.7191368075751150    4.7119456665502089    0.0000000000000000
     0.0000000000000000    0.0000000000000000   24.4413952703582034
 Tc  Ru  Tc  Ru  Tc  Ru  Tc  H  
   1   2   2   2   2   2   1   1
Cartesian
  0.0000000000000000  0.0000000000000000  9.9999991439793217
 -1.3595684037875575  2.3559728332751044  9.9999991439793217
  1.3595679037875930  2.3559728332751044  9.9999991439793217
  2.7191363075751505  0.0000000000000000  9.9999991439793217
  2.7191361410685553  1.5691401706112573 12.2206976351791017
  1.3595677372809978  3.9251130038863615 12.2206976351791017
 -1.3595685702941527  3.9251130038863615 12.2206976351791017
 -0.0000001665065952  1.5691401706112573 12.2206976351791017
 -0.0000373950429906  3.1401832887516252 14.3210222057895766
  1.3771219984965279  0.8130085527576345 14.3759252786063119
  4.0608423931747986  0.8128643389485640 14.3758721918957839
  2.7191568013995373  3.1034898411758025 14.3608201297083014
  2.7190084414324609  4.7288905582306473 15.3852917711481236
