Pd In Pd In Pd In Pd  H 
 1.0000000000000000
     5.7758825912586902    0.0000000000000000    0.0000000000000000
     1.9494328620446779    5.4369596152432180    0.0000000000000000
     0.0000000000000000    0.0000000000000000   24.7231642504182858
 Pd  In  Pd  In  Pd  In  Pd  H  
   1   2   2   2   2   2   1   1
Cartesian
  0.0000000000000000  0.0000000000000000  9.9999990963929335
  0.9747164310223390  2.7184798076216090  9.9999990963929335
  2.8879412956293451  0.0000000000000000  9.9999990963929335
  3.8626577266516842  2.7184798076216090  9.9999990963929335
  5.7758824986202804  4.0649783270611222 12.3615821252091429
  4.8011660675979417  1.3464985194395127 12.3615821252091429
  2.8879412029909357  4.0649783270611222 12.3615821252091429
  1.9132247719685964  1.3464985194395127 12.3615821252091429
  3.8869375093968110  2.7355616636516591 14.5714744491454127
  4.8764388308323170  5.4564464668633939 14.9128481184710591
  6.7824655961674125  2.7481019566346214 14.9128272768435952
  7.7792647132300274  5.4749999175677040 14.7800378760500593
  0.6678943472123231  0.4707906445928851 16.2333101454474473
