Tc Ru Tc Ru Tc Ru Tc  H 
 1.0000000000000000
     5.4382726151503009    0.0000000000000000    0.0000000000000000
    -2.7191368075751150    4.7119456665502089    0.0000000000000000
     0.0000000000000000    0.0000000000000000   24.4413952703582034
 Tc  Ru  Tc  Ru  Tc  Ru  Tc  H  
   1   2   2   2   2   2   1   1
Cartesian
  0.0000000000000000  0.0000000000000000  9.9999991439793217
 -1.3595684037875575  2.3559728332751044  9.9999991439793217
  1.3595679037875930  2.3559728332751044  9.9999991439793217
  2.7191363075751505  0.0000000000000000  9.9999991439793217
  2.7191361410685553  1.5691401706112573 12.2206976351791017
  1.3595677372809978  3.9251130038863615 12.2206976351791017
 -1.3595685702941527  3.9251130038863615 12.2206976351791017
 -0.0000001665065952  1.5691401706112573 12.2206976351791017
 -0.0000216642821629  3.1861811562781721 14.3514709049550646
  1.3855074912511915  0.7877670462014698 14.3741909660807181
  4.0528122506655047  0.7876381980472178 14.3742112768801871
  2.7192268347713249  3.1357392124842725 14.3278398152621058
 -0.0001186027021417  1.5575996497250142 15.3994419702915231
