 Y Re  Y Re  Y Re  H 
 1.0000000000000000
     5.9863495763645931    0.0000000000000000    0.0000000000000000
     1.9159528644139536    5.6714635986480983    0.0000000000000000
     0.0000000000000000    0.0000000000000000   24.8612152406488462
 Y   Re  Y   Re  Y   Re  H  
   2   2   2   2   2   2   1
Cartesian
  0.0000000000000000  0.0000000000000000  9.9999992923310419
  3.9511511203892806  2.8357318993240419  9.9999992923310419
  2.9931745881823106  0.0000000000000000  9.9999992923310419
  0.9579765322069698  2.8357318993240419  9.9999992923310419
  5.9863491763646213  4.2963886959578872 12.4306076203244231
  2.0351980559753411  1.4606568966338385 12.4306076203244231
  2.9931745881823106  4.2963886959578872 12.4306076203244231
  5.0283726441576517  1.4606568966338385 12.4306076203244231
  4.8192914589536793  3.4586091552449489 15.3192747159024059
  0.8307021412137839  0.5966645577758984 15.3147630162216846
  2.0451605552703258  3.6204062437950704 14.4590099767806759
  4.0846750109402086  0.7793502448477986 14.4574029768943983
  4.3424592926976135  3.1140486796284259 17.2773704773340384
