Ru  V Ru  V Ru  V Ru  H 
 1.0000000000000000
     5.3909596184984956    0.0000000000000000    0.0000000000000000
     2.6954798092492478    4.6687076696100274    0.0000000000000000
     0.0000000000000000    0.0000000000000000   24.4016982731674403
 Ru  V   Ru  V   Ru  V   Ru  H  
   1   1   3   1   3   1   2   1
Cartesian
  0.0000000000000000  0.0000000000000000  9.9999992823031434
  1.3477399046246239  2.3343538348050137  9.9999992823031434
  2.6954798092492478  0.0000000000000000  9.9999992823031434
  4.0432197138738717  2.3343538348050137  9.9999992823031434
  5.3909596211939759  3.1124717812962541 12.2008491365837202
  4.0432197165693520  0.7781179464912404 12.2008491365837202
  2.6954798119447276  3.1124717812962541 12.2008491365837202
  1.3477399073201037  0.7781179464912404 12.2008491365837202
  2.7174313547570850  1.5434979683876084 14.3084077113163310
  4.0667237236733254  3.8769773682522271 14.2235037590971203
  5.3941284407351286  1.5628433095241425 14.3392681486952345
  6.7346518989952369  3.8844992025467664 14.3393556531852422
  2.7004432226423223  4.6659059127755871 15.3743102748204112
