Cr Re Cr Re Cr Re  H 
 1.0000000000000000
     5.2519926283327587    0.0000000000000000    0.0000000000000000
    -2.6259958141664148    4.5483586781267524    0.0000000000000000
     0.0000000000000000    0.0000000000000000   24.2882322811970752
 Cr  Re  Cr  Re  Cr  Re  H  
   3   1   3   1   3   1   1
Cartesian
  0.0000000000000000  0.0000000000000000  9.9999992923310419
 -1.3129981070831933  2.2741794390633694  9.9999992923310419
  1.3129981070831933  2.2741794390633694  9.9999992923310419
  2.6259962141663866  0.0000000000000000  9.9999992923310419
  2.6259962141663866  1.5161195927089151 12.1441162405985317
  1.3129981070831933  3.7902990317722844 12.1441162405985317
 -1.3129981070831933  3.7902990317722844 12.1441162405985317
  0.0000000000000000  1.5161195927089151 12.1441162405985317
  0.0007322999481774  3.0755398823535742 14.2082105945289712
  1.3508377044054023  0.7367676478612369 14.2079602945466821
  3.9017759238834104  0.7363535478905415 14.2084050945152054
  2.6266908141172318  3.0318266854470215 14.3755065826899529
  2.6260268141642209  3.0322834854146952 16.0863312616201917
