Pd Ir Pd Ir Pd Ir Pd  H 
 1.0000000000000000
     5.5260966089352692    0.0000000000000000    0.0000000000000000
    -2.7630478044676701    4.8195676589341341    0.0000000000000000
     0.0000000000000000    0.0000000000000000   24.5277892642443724
 Pd  Ir  Pd  Ir  Pd  Ir  Pd  H  
   1   2   2   2   2   2   1   1
Cartesian
  0.0000000000000000  0.0000000000000000  9.9999993543194208
 -1.3815239022338350  2.4097838294670670  9.9999993543194208
  1.3815244022337996  2.4097838294670670  9.9999993543194208
  2.7630483044676346  0.0000000000000000  9.9999993543194208
  2.7630484688028378  1.5840493748759752 12.2638946321221862
  1.3815245665690030  3.9938332043430420 12.2638946321221862
 -1.3815237378986316  3.9938332043430420 12.2638946321221862
  0.0000001643352033  1.5840493748759752 12.2638946321221862
  0.0000511835674781  3.0445036842921498 14.6025174255034944
  1.3307902780300704  0.6150607033963963 14.4537361481897086
  4.1958261078439767  0.6156748657227419 14.4537231975169771
  2.7630158544547450  3.0287505611117820 14.6161753079828696
  2.7633349530673046  0.1759885421039643 15.4826302069140009
