Ir Au Ir Au Ir Au  H 
 1.0000000000000000
     5.5912086043274956    0.0000000000000000    0.0000000000000000
    -2.7956048021637123    4.8421286573375619    0.0000000000000000
     0.0000000000000000    0.0000000000000000   24.5652012615968403
 Ir  Au  Ir  Au  Ir  Au  H  
   3   1   3   1   3   1   1
Cartesian
  0.0000000000000000  0.0000000000000000  9.9999992923310419
 -1.3978022010818703  2.4210643286687810  9.9999992923310419
  1.3978022010818703  2.4210643286687810  9.9999992923310419
  0.0000000000000000  4.8421287573375551  9.9999992923310419
  2.7956043021637478  1.6140428857791871 12.2826006307984201
  1.3978022010818703  4.0351072144479678 12.2826006307984201
 -1.3978022010818703  4.0351072144479678 12.2826006307984201
  0.0000000000000000  1.6140428857791871 12.2826006307984201
  0.0000194999986200  3.1433572775543475 14.5859813677953039
  1.4712445958845797  0.7860457443739788 14.4696683760264140
  4.1199961084406436  0.7859892443779771 14.4696853760252111
  2.7955254021693312  3.2428986705101117 14.8052454522786654
  0.0000031999997735  3.2568852695203234 16.1702912556786025
