Os La Os La Os La  H 
 1.0000000000000000
     5.8834125836491253    0.0000000000000000    0.0000000000000000
    -2.9417067918245272    5.0951846394295739    0.0000000000000000
     0.0000000000000000    0.0000000000000000   24.8037852447129907
 Os  La  Os  La  Os  La  H  
   3   1   3   1   3   1   1
Cartesian
  0.0000000000000000  0.0000000000000000  9.9999992923310419
 -1.4708531959122777  2.5475924197147801  9.9999992923310419
  1.4708531959122777  2.5475924197147801  9.9999992923310419
  2.9417062918245627  0.0000000000000000  9.9999992923310419
  2.9417062918245627  1.6983948798098580 12.4018924223565090
  1.4708531959122777  4.2459872995246384 12.4018924223565090
 -1.4708531959122777  4.2459872995246384 12.4018924223565090
  0.0000000000000000  1.6983948798098580 12.4018924223565090
 -0.0005253999628191  3.5971787454388089 14.4915909744750202
  1.6441573836480774  0.7499649469273050 14.4924924744112236
  4.2396865999705184  0.7503187469022676 14.4921459744357435
  2.9408070918881961  3.3972739595854509 15.6272884941052244
  2.9412732918552047  3.3967120596252145 17.7693820425159039
