Ir  V Ir  V Ir  V  H 
 1.0000000000000000
     5.4358346153228307    0.0000000000000000    0.0000000000000000
    -2.7179168076614508    4.7075706668598132    0.0000000000000000
     0.0000000000000000    0.0000000000000000   24.4383382705745404
 Ir  V   Ir  V   Ir  V   H  
   3   1   3   1   3   1   1
Cartesian
  0.0000000000000000  0.0000000000000000  9.9999992923310419
  4.0768757114921410  2.3537853334299066  9.9999992923310419
  1.3589586038307113  2.3537853334299066  9.9999992923310419
  2.7179172076614226  0.0000000000000000  9.9999992923310419
  2.7179172076614226  1.5691901889532736 12.2191693352872566
  1.3589586038307113  3.9229755223831804 12.2191693352872566
 -1.3589586038307113  3.9229755223831804 12.2191693352872566
  0.0000000000000000  1.5691901889532736 12.2191693352872566
 -0.0000315999977638  3.1052682802497880 14.3553278841179353
  1.3302616058615091  0.8011575433045637 14.3553020841197618
  4.1055063094660422  0.8011577433045495 14.3553195841185239
  2.7178914076632488  3.1383861779061366 14.4137020799869742
  2.7179125076617550  3.1383768779067949 16.0850875617082032
