Ga Fe Ga Fe Ga Fe  H 
 1.0000000000000000
     5.4440106147442409    0.0000000000000000    0.0000000000000000
    -2.7220048073721554    4.7146516663587130    0.0000000000000000
     0.0000000000000000    0.0000000000000000   24.4450142701020994
 Ga  Fe  Ga  Fe  Ga  Fe  H  
   3   1   3   1   3   1   1
Cartesian
  0.0000000000000000  0.0000000000000000  9.9999992923310419
 -1.3610026036860638  2.3573257331793638  9.9999992923310419
  1.3610026036860638  2.3573257331793638  9.9999992923310419
  2.7220052073721277  0.0000000000000000  9.9999992923310419
  2.7220052073721277  1.5715504887862424 12.2225072350510438
  1.3610026036860638  3.9288761219656134 12.2225072350510438
 -1.3610026036860638  3.9288761219656134 12.2225072350510438
  0.0000000000000000  1.5715504887862424 12.2225072350510438
 -0.0001322999906375  3.3144667654454594 15.4162775090378190
  1.3447924048332094  0.9203211348717255 14.6690855619142777
  4.0991049099190500  0.9201884348811162 14.6693536618953040
  2.7219696073746471  3.2652521689282237 14.2973881882181484
 -0.0000054999996108  3.2220596719848231 17.0048455966197771
