 V Sc  V Sc  V Sc  H 
 1.0000000000000000
     5.6401896008612615    0.0000000000000000    0.0000000000000000
    -2.8200948004306308    4.8845466543357716    0.0000000000000000
     0.0000000000000000    0.0000000000000000   24.6051932587667288
 V   Sc  V   Sc  V   Sc  H  
   3   1   3   1   3   1   1
Cartesian
  0.0000000000000000  0.0000000000000000  9.9999992923310419
 -1.4100473002153227  2.4422735271678713  9.9999992923310419
  1.4100473002153227  2.4422735271678713  9.9999992923310419
  2.8200946004306453  0.0000000000000000  9.9999992923310419
  2.8200946004306453  1.6281823847785788 12.3025968293833508
  1.4100473002153227  4.0704559119464498 12.3025968293833508
 -1.4100473002153227  4.0704559119464498 12.3025968293833508
  0.0000000000000000  1.6281823847785788 12.3025968293833508
  0.0007722999453467  3.4647916548074327 14.3246583862883217
  1.5923582873137390  0.7090433498231996 14.3247988862783782
  4.0518785132611148  0.7105181497188325 14.3263679861673374
  2.8203127004152106  3.2560885695767032 15.1047533310834190
  2.8185800005378288  3.2553451696293112 16.9548058001609405
