Re La Re La Re La Re  H 
 1.0000000000000000
     5.9362785799079623    0.0000000000000000    0.0000000000000000
     2.9681397899539461    5.1409676361896537    0.0000000000000000
     0.0000000000000000    0.0000000000000000   24.8469502416583374
 Re  La  Re  La  Re  La  Re  H  
   1   1   3   1   3   1   2   1
Cartesian
  0.0000000000000000  0.0000000000000000  9.9999994786387969
  1.4840698949769731  2.5704838180948268  9.9999994786387969
  2.9681392899539811  0.0000000000000000  9.9999994786387969
  4.4522091849309540  2.5704838180948268  9.9999994786387969
  5.9362789162094121  3.4273117591734250 12.4234751208291687
  4.4522090212324388  0.8568279410785982 12.4234751208291687
  2.9681396262554305  3.4273117591734250 12.4234751208291687
  1.4840697312784574  0.8568279410785982 12.4234751208291687
  2.7574121916840970  1.6698897502080778 14.4605859046213023
  4.4485468212338644  4.0620482378360840 15.4278331766411796
  6.1434499735670594  1.6730134792583413 14.4690712126696805
  7.4145882013583115  4.0387479278969662 14.3251053740397367
  1.4824674679357788  1.5036428250263614 15.8571148801504211
