Au Pb Au Pb Au Pb  H 
 1.0000000000000000
     6.4203675456504863    0.0000000000000000    0.0000000000000000
     2.1917368448975760    6.0346835729441466    0.0000000000000000
     0.0000000000000000    0.0000000000000000   25.2571362126307477
 Au  Pb  Au  Pb  Au  Pb  H  
   2   2   2   2   2   2   1
Cartesian
  0.0000000000000000  0.0000000000000000  9.9999992923310419
  4.3060522952740241  3.0173416864720801  9.9999992923310419
  3.2101836728252504  0.0000000000000000  9.9999992923310419
  1.0958686224487739  3.0173416864720801  9.9999992923310419
  6.4203672456505076  4.4988867816277258 12.6285683063153584
  2.1143149503764835  1.4815450951556453 12.6285683063153584
  3.2101836728252504  4.4988867816277258 12.6285683063153584
  5.3244986232017348  1.4815450951556453 12.6285683063153584
  4.2343218003501688  2.9723996896524860 15.1647158268400588
  8.5423785954823401  5.9782534769375300 15.1634188269318440
  7.4425019733172011  2.9633864902903224 15.7029500887508888
  5.3435992218500443  5.9976813755626770 15.3158175161470620
  7.4510477727124416  2.9726074896377810 17.5925676550285104
