Ir Ta Ir Ta Ir Ta  H 
 1.0000000000000000
     5.5576836066999560    0.0000000000000000    0.0000000000000000
    -2.7788418033499780    4.8130946593922070    0.0000000000000000
     0.0000000000000000    0.0000000000000000   24.5378282635339424
 Ir  Ta  Ir  Ta  Ir  Ta  H  
   3   1   3   1   3   1   1
Cartesian
  0.0000000000000000  0.0000000000000000  9.9999992923310419
 -1.3894209016749890  2.4065475296960899  9.9999992923310419
  1.3894209016749890  2.4065475296960899  9.9999992923310419
  2.7788417033499853  0.0000000000000000  9.9999992923310419
  2.7788417033499853  1.6043649864640623 12.2689140317669789
  1.3894209016749890  4.0109126161601445 12.2689140317669789
 -1.3894209016749890  4.0109126161601445 12.2689140317669789
  0.0000000000000000  1.6043649864640623 12.2689140317669789
  0.0000227999983865  3.2016329734303568 14.5393205710973419
  1.3601017037498178  0.8060891429555695 14.4531747771936150
  4.1976372029462246  0.8060973429549892 14.4531557771949597
  2.7788715033478759  3.2197000721518045 14.4383813782404982
  0.0000159999988677  2.8386593991168723 16.1186933593300274
