Mo Hf Mo Hf Mo Hf  H 
 1.0000000000000000
     5.8344155871164913    0.0000000000000000    0.0000000000000000
    -2.9172077935582457    5.0527516424324252    0.0000000000000000
     0.0000000000000000    0.0000000000000000   24.7637782475441632
 Mo  Hf  Mo  Hf  Mo  Hf  H  
   3   1   3   1   3   1   1
Cartesian
  0.0000000000000000  0.0000000000000000  9.9999992923310419
 -1.4586037967791297  2.5263759212162058  9.9999992923310419
  1.4586037967791297  2.5263759212162058  9.9999992923310419
  2.9172075935582593  0.0000000000000000  9.9999992923310419
  2.9172075935582593  1.6842505808108061 12.3818893237720680
  1.4586037967791297  4.2106265020270124 12.3818893237720680
 -1.4586037967791297  4.2106265020270124 12.3818893237720680
  0.0000000000000000  1.6842505808108061 12.3818893237720680
  0.0005992999575894  3.4865364532686205 14.5047816735415545
  1.5613408895087442  0.7828173446024427 14.5036399736223487
  4.2734983975777627  0.7823142446380454 14.5054775734923069
  2.9174345935421955  3.3682145616418944 15.2845350183608275
  2.9169958935732407  3.3683576616317676 17.1401529870444946
