Cu Pd Cu Pd Cu Pd Cu  H 
 1.0000000000000000
     5.2703476270338330    0.0000000000000000    0.0000000000000000
     1.7567868756776375    4.9689296483642487    0.0000000000000000
     0.0000000000000000    0.0000000000000000   24.3032202801364221
 Cu  Pd  Cu  Pd  Cu  Pd  Cu  H  
   1   2   2   2   2   2   1   1
Cartesian
  0.0000000000000000  0.0000000000000000  9.9999991677558135
  0.8783934378388187  2.4844648241821243  9.9999991677558135
  2.6351738135169165  0.0000000000000000  9.9999991677558135
  3.5135672513557354  2.4844648241821243  9.9999991677558135
  5.2703475391447139  3.7266948760316034 12.1516101400682111
  4.3919541013058954  1.2422300518494791 12.1516101400682111
  2.6351737256277978  3.7266948760316034 12.1516101400682111
  1.7567802877889789  1.2422300518494791 12.1516101400682111
  3.5251183972231996  2.5230167667208532 14.3053928967512842
  4.4266934517980303  4.9930657570517907 14.2648082687153135
  6.1690242067512298  2.4985417571555733 14.3019062838602338
  5.3101314696917026 -0.0020862398953733 14.3055100625762535
  4.8459951755228703  1.5633702955250393 15.0370043051770832
