Cu Pd Cu Pd Cu Pd Cu  H 
 1.0000000000000000
     5.2703476270338330    0.0000000000000000    0.0000000000000000
     1.7567868756776375    4.9689296483642487    0.0000000000000000
     0.0000000000000000    0.0000000000000000   24.3032202801364221
 Cu  Pd  Cu  Pd  Cu  Pd  Cu  H  
   1   2   2   2   2   2   1   1
Cartesian
  0.0000000000000000  0.0000000000000000  9.9999991677558135
  0.8783934378388187  2.4844648241821243  9.9999991677558135
  2.6351738135169165  0.0000000000000000  9.9999991677558135
  3.5135672513557354  2.4844648241821243  9.9999991677558135
  5.2703475391447139  3.7266948760316034 12.1516101400682111
  4.3919541013058954  1.2422300518494791 12.1516101400682111
  2.6351737256277978  3.7266948760316034 12.1516101400682111
  1.7567802877889789  1.2422300518494791 12.1516101400682111
  3.4736111435713068  2.4559892299783539 14.2950565670435967
  4.3694976126494378  4.9414087843031149 14.3005802758585290
  6.1153155543130229  2.4727466222370351 14.3003064028691913
  5.2349908686041111 -0.0249633957225578 14.3200922863829767
  1.2818062196766755  0.9063403355414935 15.0883856874289410
