Au Bi Au Bi Au Bi Au  H 
 1.0000000000000000
     6.2551335573435844    0.0000000000000000    0.0000000000000000
     3.1275667786717922    5.4171046166482952    0.0000000000000000
     0.0000000000000000    0.0000000000000000   25.1072942232346037
 Au  Bi  Au  Bi  Au  Bi  Au  H  
   1   1   3   1   3   1   2   1
Cartesian
  0.0000000000000000  0.0000000000000000  9.9999993307632327
  1.5637833893358961  2.7085523083241476  9.9999993307632327
  3.1275667786717922  0.0000000000000000  9.9999993307632327
  4.6913501680076886  2.7085523083241476  9.9999993307632327
  6.2551335604711511  3.6114030795712315 12.5536471116173018
  4.6913501711352543  0.9028507712470840 12.5536471116173018
  3.1275667817993584  3.6114030795712315 12.5536471116173018
  1.5637833924634625  0.9028507712470840 12.5536471116173018
  3.2355938953701169  1.6274388711283101 15.4106902056075228
  4.6901991952850359  4.3105733120254515 15.0033113010425456
  6.1474106277901530  1.6274711462376159 15.4107020060358053
  7.8186283660928133  4.4315267651835653 15.0140773841273489
  1.5633207596579950  1.9159958401546726 16.0208633869867541
