Ni La Ni La Ni La  H 
 1.0000000000000000
     6.1936195616967389    0.0000000000000000    0.0000000000000000
     2.0539538546480514    5.8431325864996158    0.0000000000000000
     0.0000000000000000    0.0000000000000000   25.0537872270211217
 Ni  La  Ni  La  Ni  La  H  
   2   2   2   2   2   2   1
Cartesian
  0.0000000000000000  0.0000000000000000  9.9999992923310419
  4.1237864081724167  2.9215660932498220  9.9999992923310419
  3.0968095808483835  0.0000000000000000  9.9999992923310419
  1.0269767273240398  2.9215660932498220  9.9999992923310419
  6.1936192616967602  4.3879741894766662 12.5268938135105472
  2.0698328535243440  1.4664080962268438 12.5268938135105472
  3.0968095808483835  4.3879741894766662 12.5268938135105472
  5.1666425343727207  1.4664080962268438 12.5268938135105472
  4.1431953067989093  2.9352850922789711 14.9233224439227214
  0.0087204993828773  0.0062101995605234 14.7126833588289969
  1.0347489267740253  2.9283702927683102 15.1336274290400894
  3.1057854802131875  0.0051062996386430 15.1336495290385251
  4.1409512069577170  2.9337456923879097 16.4846089334353145
