Fe  Y Fe  Y Fe  Y Fe  H 
 1.0000000000000000
     5.9932825758739661    0.0000000000000000    0.0000000000000000
     1.9275658635921376    5.6748505984084110    0.0000000000000000
     0.0000000000000000    0.0000000000000000   24.8702312400108134
 Fe  Y   Fe  Y   Fe  Y   Fe  H  
   1   2   2   2   2   2   1   1
Cartesian
  0.0000000000000000  0.0000000000000000  9.9999994043276654
  0.9637829317960688  2.8374252992042055  9.9999994043276654
  2.9966412879369830  0.0000000000000000  9.9999994043276654
  3.9604242197330519  2.8374252992042055  9.9999994043276654
  5.9932826051906680  4.2938560986769065 12.4351156200054067
  5.0294996733946000  1.4564307994727013 12.4351156200054067
  2.9966413172536859  4.2938560986769065 12.4351156200054067
  2.0328583854576170  1.4564307994727013 12.4351156200054067
  4.2107729875150595  2.4291362386909037 14.7875968115939891
  2.8253647632049108 -0.1235591292881604 14.8726882932929563
  1.1438586794656631  2.9661047440399990 14.8595200778666889
 -0.3068921818680044  0.3683056521550835 14.7883908683370198
  5.3797640593963862  1.7077781553347267 15.8801278898286284
