Co Pb Co Pb Co Pb  H 
 1.0000000000000000
     5.7801045909599118    0.0000000000000000    0.0000000000000000
     1.9371268629155356    5.4458376146149501    0.0000000000000000
     0.0000000000000000    0.0000000000000000   24.7225862504591909
 Co  Pb  Co  Pb  Co  Pb  H  
   2   2   2   2   2   2   1
Cartesian
  0.0000000000000000  0.0000000000000000  9.9999992923310419
  3.8586157269377237  2.7229186073074891  9.9999992923310419
  2.8900520954799700  0.0000000000000000  9.9999992923310419
  0.9685636314577536  2.7229186073074891  9.9999992923310419
  5.7801040909599477  4.0788599113517252 12.3612931252295954
  1.9214884640222165  1.3559413040442363 12.3612931252295954
  2.8900520954799700  4.0788599113517252 12.3612931252295954
  4.8115405595021867  1.3559413040442363 12.3612931252295954
  3.8430451280396065  2.7105204081848715 14.4601344767010982
  7.7006096550517205  5.4354287153515557 14.4614898766051798
  6.7368973232506555  2.7154562078355799 15.0827479326406735
  4.8152174592419836  5.4369002152474222 15.0449654353144222
  6.7331626235149482  2.7122310080638177 16.9526205003155894
