In Zr In Zr In Zr  H 
 1.0000000000000000
     6.4180165458168599    0.0000000000000000    0.0000000000000000
    -3.2090077729084650    5.5581656066658462    0.0000000000000000
     0.0000000000000000    0.0000000000000000   25.2402872138230983
 In  Zr  In  Zr  In  Zr  H  
   3   1   3   1   3   1   1
Cartesian
  0.0000000000000000  0.0000000000000000  9.9999992923310419
 -1.6045040864542186  2.7790826033329368  9.9999992923310419
  1.6045040864542186  2.7790826033329368  9.9999992923310419
  3.2090081729084372  0.0000000000000000  9.9999992923310419
  3.2090081729084372  1.8527217688886224 12.6201435069115551
  1.6045040864542186  4.6318042722215660 12.6201435069115551
 -1.6045040864542186  4.6318042722215660 12.6201435069115551
  0.0000000000000000  1.8527217688886224 12.6201435069115551
 -0.0000020999998514  3.6300103431154178 15.6552463921267311
  1.6286495847455165  0.8608282390818534 15.3826559114171157
  4.7893818610702894  0.8608313390816340 15.3826711114160393
  3.2089759729107157  3.7008187381045277 14.9677475407788947
  0.0000022999998372  3.2596774693227282 17.4144569676328516
