Cu Ta Cu Ta Cu Ta  H 
 1.0000000000000000
     5.4279476158809690    0.0000000000000000    0.0000000000000000
    -2.7139738079404845    4.7007406673431511    0.0000000000000000
     0.0000000000000000    0.0000000000000000   24.4318992710302076
 Cu  Ta  Cu  Ta  Cu  Ta  H  
   3   1   3   1   3   1   1
Cartesian
  0.0000000000000000  0.0000000000000000  9.9999992923310419
 -1.3569869039702422  2.3503703336715756  9.9999992923310419
  1.3569869039702422  2.3503703336715756  9.9999992923310419
  2.7139739079404777  0.0000000000000000  9.9999992923310419
  2.7139739079404777  1.5669135891143815 12.2159497355150961
  1.3569869039702422  3.9172839227859573 12.2159497355150961
 -1.3569869039702422  3.9172839227859573 12.2159497355150961
  0.0000000000000000  1.5669135891143815 12.2159497355150961
  0.0003420999757906  3.1851810745946070 14.2953138883649391
  1.4015370008175703  0.7575369463914581 14.2957502883340570
  4.0275331149839637  0.7577559463759601 14.2962072883017175
  2.7138603079485168  3.1331541782763890 14.5830319680040237
  2.7144099079096233  3.1340318782142771 16.3639055419771218
