Ga Tc Ga Tc Ga Tc  H 
 1.0000000000000000
     5.3256926231172388    0.0000000000000000    0.0000000000000000
     1.7106068789456528    5.0434936430875856    0.0000000000000000
     0.0000000000000000    0.0000000000000000   24.3269332784583234
 Ga  Tc  Ga  Tc  Ga  Tc  H  
   2   2   2   2   2   2   1
Cartesian
  0.0000000000000000  0.0000000000000000  9.9999992923310419
  3.5181496510314525  2.5217468215437928  9.9999992923310419
  2.6628464115586121  0.0000000000000000  9.9999992923310419
  0.8553033394728334  2.5217468215437928  9.9999992923310419
  5.3256927231172311  3.8173614298571628 12.1634664392291771
  1.8075430720857788  1.2956146083133695 12.1634664392291771
  2.6628464115586121  3.8173614298571628 12.1634664392291771
  4.4703894836443911  1.2956146083133695 12.1634664392291771
  3.6072383447269218  2.5758473177152683 14.4638743764364364
  0.0939534933512025  0.0740464947599591 14.3730340828649226
  0.9480178329117160  2.6018633158741968 14.1528978984432783
  2.7569199049013227  0.0559103960433945 14.1554996982591561
  3.6186248439211348  2.5941532164198167 16.0762130623362225
