Bi Ru Bi Ru Bi Ru Bi  H 
 1.0000000000000000
     6.7124795249786278    0.0000000000000000    0.0000000000000000
     3.3562397624893139    5.8131775886194381    0.0000000000000000
     0.0000000000000000    0.0000000000000000   25.4807151968087524
 Bi  Ru  Bi  Ru  Bi  Ru  Bi  H  
   1   1   3   1   3   1   2   1
Cartesian
  0.0000000000000000  0.0000000000000000  9.9999992504259048
  1.6781198812446569  2.9065887943097191  9.9999992504259048
  3.3562397624893139  0.0000000000000000  9.9999992504259048
  5.0343596437339713  2.9065887943097191  9.9999992504259048
  6.7124795283348675  3.8754517276840179 12.7403575984043762
  5.0343596470902101  0.9688629333742989 12.7403575984043762
  3.3562397658455536  3.8754517276840179 12.7403575984043762
  1.6781198846008967  0.9688629333742989 12.7403575984043762
  3.6442608778971119  1.7776980458405685 15.3069460302609173
  4.5511772673249702  5.1207003816109973 14.9775366441853368
  6.7993823021685476  1.8028734879351929 15.4974671978796650
  8.5473873314806088  4.8406007904790984 15.4956732790876668
  4.8431155944778794  4.9529566080128644 16.5634522046781356
