Ir  V Ir  V Ir  V  H 
 1.0000000000000000
     5.4358346153228307    0.0000000000000000    0.0000000000000000
    -2.7179168076614508    4.7075706668598132    0.0000000000000000
     0.0000000000000000    0.0000000000000000   24.4383382705745404
 Ir  V   Ir  V   Ir  V   H  
   3   1   3   1   3   1   1
Cartesian
  0.0000000000000000  0.0000000000000000  9.9999992923310419
  4.0768757114921410  2.3537853334299066  9.9999992923310419
  1.3589586038307113  2.3537853334299066  9.9999992923310419
  2.7179172076614226  0.0000000000000000  9.9999992923310419
  2.7179172076614226  1.5691901889532736 12.2191693352872566
  1.3589586038307113  3.9229755223831804 12.2191693352872566
 -1.3589586038307113  3.9229755223831804 12.2191693352872566
  0.0000000000000000  1.5691901889532736 12.2191693352872566
  0.0000083999994056  3.1211768791239858 14.4325443786535637
  1.3275564060529474  0.7917560439698785 14.3518203843661514
  4.1082245092736844  0.7917467439705367 14.3518496843640779
  2.7178871076635529  3.1574533765568105 14.3109702872569855
  0.0000304999978416  2.8164929006855264 16.0269250658241837
