Ag Pd Ag Pd Ag Pd  H 
 1.0000000000000000
     5.8365045869686591    0.0000000000000000    0.0000000000000000
    -2.9182517934843646    5.0545606423044083    0.0000000000000000
     0.0000000000000000    0.0000000000000000   24.7654842474234336
 Ag  Pd  Ag  Pd  Ag  Pd  H  
   3   1   3   1   3   1   1
Cartesian
  0.0000000000000000  0.0000000000000000  9.9999992923310419
 -1.4591260967421682  2.5272805211521900  9.9999992923310419
  1.4591260967421682  2.5272805211521900  9.9999992923310419
  2.9182521934843364  0.0000000000000000  9.9999992923310419
  2.9182521934843364  1.6848536807681267 12.3827422237117108
  1.4591260967421682  4.2121342019203167 12.3827422237117108
 -1.4591260967421682  4.2121342019203167 12.3827422237117108
  0.0000000000000000  1.6848536807681267 12.3827422237117108
 -0.0000009999999292  3.3593468622694336 14.8486578492065036
  1.4501544973770606  0.8476086400173635 14.8486587492064395
  4.3863516895914847  0.8476064400175192 14.8486574492065326
  2.9182522934843296  3.3697079615362107 14.7583548555969664
  2.9182520934843432  3.3697071615362675 16.3428700434657372
