Au Mo Au Mo Au Mo  H 
 1.0000000000000000
     5.8790425839583769    0.0000000000000000    0.0000000000000000
    -2.9395217919791530    5.0914006396973566    0.0000000000000000
     0.0000000000000000    0.0000000000000000   24.8002172449654843
 Au  Mo  Au  Mo  Au  Mo  H  
   3   1   3   1   3   1   1
Cartesian
  0.0000000000000000  0.0000000000000000  9.9999992923310419
 -1.4697607959895835  2.5457003198486783  9.9999992923310419
  1.4697607959895835  2.5457003198486783  9.9999992923310419
  2.9395214919791739  0.0000000000000000  9.9999992923310419
  2.9395214919791739  1.6971335798991163 12.4001086224827421
  1.4697607959895835  4.2428338997477946 12.4001086224827421
 -1.4697607959895835  4.2428338997477946 12.4001086224827421
  0.0000000000000000  1.6971335798991163 12.4001086224827421
 -0.0001349999904465  3.6407691423540514 14.9151793444989842
  1.4216679993929617  1.0546050253688708 14.8025505524693735
  4.4573655845660518  1.0545462253730318 14.8026058524654616
  2.9394964919809432  3.5533172485427507 14.6014534667003897
 -0.0000820999941900  4.1118806090149533 16.4598396351881604
