Nb  N Nb  N Nb  N Nb  N  H 
 1.0000000000000000
     5.3527600000000000    0.0000000000000000    0.0000000000000000
    -7.0649591738454376    8.0432897711258153    0.0000000000000000
     0.0000000000000000    0.0000000000000000   31.4908999999999999
 Nb  N   Nb  N   Nb  N   Nb  N   H  
   4   3   4   3   4   3   4   3   1
Cartesian
 -0.6826278418131262  2.7317425049674604  3.4444746420000003
  1.9663286362361443  1.5327695152345910  2.4449534759999998
 -1.5112652856895392  3.1068011069950572  0.5073183990000000
  4.6701070425367277  0.3089829765577982  1.4762933919999999
  2.9038991174482289  1.1084055469099932  0.4918878580000000
 -2.4488357669016243  3.5311650753196555  2.4600691079999999
  3.7599919516482339  0.7209200621860068  3.4444746420000003
 -2.6299140656499520  3.6312510147086030  7.1854646524419481
  0.1734955432640378  2.2891660757746219  6.2933187386286198
 -3.3185709254418145  3.9334014894631455  4.4592908755318215
  2.8479861035367113  1.1457860379270852  5.4945475401087833
  1.0774485314235991  1.9266732779064935  4.4294078792605012
  4.5462199496606832  0.3626383238687973  6.4671838968172812
  1.8365099072324742  1.5894785654633490  7.3530695469148935
 -4.2151074287358448  6.7533873905303681  3.4444746420000003
 -1.5661509506865745  5.5544144007974987  2.4449534759999998
 -5.0437448726122582  7.1284459925579648  0.5073183990000000
  1.1376274556140089  4.3306278621207062  1.4762933919999999
 -0.6285804694744899  5.1300504324729008  0.4918878580000000
 -5.9813153538243427  7.5528099608825627  2.4600691079999999
  0.2275123647255151  4.7425649477489147  3.4444746420000003
 -6.0820007379679337  7.5572290925956445  7.1892489832487341
 -3.4059166342642024  6.4136760336486018  6.3779440998191843
 -6.8700370994077131  7.9263360604338828  4.4898829851813709
 -0.7165599970921788  5.1305879196382227  5.4849543213304672
 -2.4403061427429145  5.9432482806244993  4.4234069508685749
  1.0256972010870120  4.3541721361775023  6.4238518583103001
 -1.6889340990942581  5.5729703186203752  7.3654962970717577
 -4.4091797357792011  6.8321837136624115  8.0105530251575274
