Ru Mn Ru Mn Ru Mn  H 
 1.0000000000000000
     5.3327406226184735    0.0000000000000000    0.0000000000000000
    -2.6663698113092722    4.6182886731780233    0.0000000000000000
     0.0000000000000000    0.0000000000000000   24.3541622765314152
 Ru  Mn  Ru  Mn  Ru  Mn  H  
   3   1   3   1   3   1   1
Cartesian
  0.0000000000000000  0.0000000000000000  9.9999991297738333
 -1.3331849056546361  2.3091443365890116  9.9999991297738333
  1.3331854056546006  2.3091443365890116  9.9999991297738333
  2.6663703113092367  0.0000000000000000  9.9999991297738333
  2.6663704806422617  1.5394295561865783 12.1770811382657076
  1.3331855749876254  3.8485738927755899 12.1770811382657076
 -1.3331847363216114  3.8485738927755899 12.1770811382657076
  0.0000001693330249  1.5394295561865783 12.1770811382657076
  0.0213104285655681  3.0519757815275552 14.3271439815656141
  1.3205688740257966  0.8015859738539948 14.3271471232525496
  4.0058556851236036  0.7733359436047630 14.2852603751989804
  2.6731282833141128  3.0827390844727307 14.2964661149290091
 -0.6740209636105128  4.2291220755822252 15.5053878558602651
