Mo  N  H 
 1.0000000000000000
     5.2865300000000000    0.0000000000000000    0.0000000000000000
     9.0036383979191221    5.5429318382167017    0.0000000000000000
     0.0000000000000000    0.0000000000000000   29.5315000000000012
 Mo  N   H  
  16   8   1
Cartesian
  6.3187901242093378  1.0406854526251923  0.6328600450000680
  3.4695974393761486  0.2339671528911115  1.8279998500000414
  5.5341176877947884  2.3153380581414962  3.0940152550000590
  2.6848271194696793  1.5085920437482547  4.2888597449999413
  5.5353537565274822  0.8034025530437838  5.5787613021140166
  2.6746961279722878 -0.0167037550082831  6.7162732709517536
  4.7317629936906336  2.0914560793941148  8.0186225602554870
  7.1908802543234316  1.2619099585591294  8.9769576319411204
 10.8206093231688989  3.8121513717335431  0.6328600450000680
  7.9714166383357101  3.0054330719994624  1.8279998500000414
 10.0359368867543495  5.0868039772498470  3.0940152550000590
  7.1866463184292400  4.2800579628566053  4.2888597449999413
 10.0376646723663576  3.5867986077035097  5.5809222174293556
  7.1902719988422783  2.7671348608773338  6.7244478990658676
  9.2243009251049841  4.8659401231508737  8.0211498779521104
 11.6894320935092750  4.0036931170304086  8.9574938299643989
  4.5018383812725364  2.0230592623123469  1.2305776050001005
  4.5017788624064430  0.5262182340610998  3.6914375000000001
  3.7129925511145823  1.7856791760101394  6.1679607098136318
  3.6576479216009665  0.2489917126858682  8.6314773930467528
  9.0036575802320975  4.7945251814206982  1.2305776050001005
  9.0035980613660040  3.2976841531694507  3.6914375000000001
  8.2116294803460175  4.5619217437494539  6.1496848222725387
  8.2042514055178835  3.0374118053438548  8.6284262304072588
  5.6754692389277128  2.3190198149453249  9.7398721246575359
