Mo  N  H 
 1.0000000000000000
     5.2865300000000000    0.0000000000000000    0.0000000000000000
     9.0036383979999997    5.5429318380000003    0.0000000000000000
     0.0000000000000000    0.0000000000000000   29.5315000000000012
 Mo  N   H  
  16   8   1
Cartesian
  6.3187899999999999  1.0406899999999999  0.6328600000000000
  3.4695999999999998  0.2339700000000000  1.8280000000000001
  5.5341199999999997  2.3153400000000000  3.0940200000000000
  2.6848299999999998  1.5085900000000001  4.2888599999999997
  5.5353700000000003  0.7913800000000000  5.5805600000000002
 11.6765000000000008  5.5143300000000002  6.7149900000000002
  4.7400099999999998  2.0650200000000001  8.0237300000000005
  7.1931700000000003  1.2558000000000000  8.9765499999999996
 10.8206100000000003  3.8121499999999999  0.6328600000000000
  7.9714200000000002  3.0054300000000000  1.8280000000000001
 10.0359400000000001  5.0868000000000002  3.0940200000000000
  7.1866500000000002  4.2800599999999998  4.2888599999999997
 10.0359999999999996  3.5724399999999998  5.5826300000000000
  7.1887900000000000  2.7582900000000001  6.7257699999999998
  9.2283200000000001  4.8377499999999998  8.0211699999999997
 11.6932299999999998  3.9939600000000000  8.9655199999999997
  4.5018399999999996  2.0230600000000001  1.2305800000000000
  4.5017800000000001  0.5262200000000000  3.6914400000000001
  3.7141500000000001  1.7710600000000001  6.1759599999999999
  3.6600400000000000  0.2366500000000000  8.6235199999999992
  9.0036600000000000  4.7945300000000000  1.2305800000000000
  9.0036000000000005  3.2976800000000002  3.6914400000000001
  8.2119400000000002  4.5468099999999998  6.1532200000000001
  8.2086000000000006  3.0258600000000002  8.6369799999999994
  5.6840799999999998  2.3000400000000001  9.7487399999999997
