Mo  N  H 
 1.0000000000000000
     5.2865300000000000    0.0000000000000000    0.0000000000000000
     9.0036383979999997    5.5429318380000003    0.0000000000000000
     0.0000000000000000    0.0000000000000000   29.5315000000000012
 Mo  N   H  
  16   8   1
Cartesian
  6.3187899999999999  1.0406899999999999  0.6328600000000000
  3.4695999999999998  0.2339700000000000  1.8280000000000001
  5.5341199999999997  2.3153400000000000  3.0940200000000000
  2.6848299999999998  1.5085900000000001  4.2888599999999997
  5.5409400000000000  0.8158100000000000  5.5784500000000001
  2.6796600000000002  0.0093800000000000  6.7194099999999999
  4.7481099999999996  2.0776699999999999  8.0211199999999998
  7.1903800000000002  1.3041199999999999  8.9794099999999997
 10.8206100000000003  3.8121499999999999  0.6328600000000000
  7.9714200000000002  3.0054300000000000  1.8280000000000001
 10.0359400000000001  5.0868000000000002  3.0940200000000000
  7.1866500000000002  4.2800599999999998  4.2888599999999997
 10.0419000000000000  3.5987399999999998  5.5823299999999998
  7.1946500000000002  2.7942000000000000  6.7298600000000004
  9.2426600000000008  4.8494099999999998  8.0220199999999995
 11.6906499999999998  4.0428800000000003  8.9654000000000007
  4.5018399999999996  2.0230600000000001  1.2305800000000000
  4.5017800000000001  0.5262200000000000  3.6914400000000001
  3.7193700000000001  1.8019099999999999  6.1701300000000003
  3.6607900000000000  0.2846700000000000  8.6338299999999997
  9.0036600000000000  4.7945300000000000  1.2305800000000000
  9.0036000000000005  3.2976800000000002  3.6914400000000001
  8.2175499999999992  4.5764500000000004  6.1507300000000003
  8.2101100000000002  3.0757699999999999  8.6388800000000003
  5.6789399999999999  2.3487700000000000  9.7467500000000005
