Mo  N Mo  N Mo  N Mo  N Mo  N Mo  N Mo  N Mo  N  H 
 1.0000000000000000
     5.2865300000000000    0.0000000000000000    0.0000000000000000
     9.0036383979191221    5.5429318382167017    0.0000000000000000
     0.0000000000000000    0.0000000000000000   29.5315000000000012
 Mo  N   Mo  N   Mo  N   Mo  N   Mo  N   Mo  N   Mo  N   Mo  N   H  
   2   1   2   1   2   1   2   1   2   1   2   1   2   1   2   1   1
Cartesian
  6.3187901242093147  1.0406854526251856  0.6328600450000000
  3.4695974393761664  0.2339671528911270  1.8279998499999999
  4.5018383812725213  2.0230592623123318  1.2305776049999999
  5.5341176877947973  2.3153380581414984  3.0940152550000000
  2.6848271194696580  1.5085920437482485  4.2888597449999999
  4.5017788624064519  0.5262182340611026  3.6914375000000001
  5.5342012025312259  0.8117281554423833  5.5801546489121590
  2.6685141347708456  0.0068146535536930  6.7142262215571602
  3.7103798871771474  1.7981954587482984  6.1660112410597163
  4.7312881441666716  2.0673137429756281  8.0159630681373741
  7.1759305296745026  1.3054365281137805  8.9691652199585512
  3.6455011325077575  0.2824641603721527  8.6284891035443732
 10.8206093231688758  3.8121513717335365  0.6328600450000000
  7.9714166383357270  3.0054330719994780  1.8279998499999999
  9.0036575802320833  4.7945251814206831  1.2305776049999999
 10.0359368867543584  5.0868039772498488  3.0940152550000000
  7.1866463184292186  4.2800579628565991  4.2888597449999999
  9.0035980613660129  3.2976841531694534  3.6914375000000001
 10.0345893979986691  3.5957617571013789  5.5818534495551546
  7.1813496142695525  2.7915204350823837  6.7251648371626294
  8.2071887396777612  4.5708433948657072  6.1489366347404433
  9.2328766284151147  4.8419267557514774  8.0161807188138781
 11.6744129354416746  4.0453425518226078  8.9596208951802563
  8.1948909508807670  3.0792188579210866  8.6370987353278270
  5.6588396258774818  2.3497406043793005  9.7358992912310622
