Cd Ni Cd Ni Cd Ni Cd Ni Cd Ni Cd  H 
 1.0000000000000000
     5.4903626114640538    0.0000000000000000    0.0000000000000000
     2.2159898431812666    5.0232936445170768    0.0000000000000000
     0.0000000000000000    0.0000000000000000   24.5473032628634265
 Cd  Ni  Cd  Ni  Cd  Ni  Cd  Ni  Cd  Ni  Cd  H  
   1   2   1   1   1   1   1   1   1   1   1   1
Cartesian
  3.3239839455834410  0.3772855756737030  9.9999993480299274
  0.5788026398514139  0.3772855756737030  9.9999993480299274
  4.4319788671740739  2.8889323979322414  9.9999993480299274
  1.6867975614420472  2.8889323979322414  9.9999993480299274
  2.2159894297338605  1.4444661964544738 12.2736516314317132
  4.9611707354658883  1.4444661964544738 12.2736516314317132
  6.0691656570565211  3.9561130187130127 12.2736516314317132
  3.3239843513244942  3.9561130187130127 12.2736516314317132
 -0.3469384924280300 -0.0019639119065540 14.4401402568037476
  2.4300894425714263 -0.1721536029121571 14.7790387546234321
  3.7094859908360083  2.2447612954990341 14.4419542288729641
  6.5224431181221192  2.4848028232584292 14.7020717653240673
  4.6031643839283092  1.2358149644451029 15.3882681608154961
