Tc Mo Tc Mo Tc Mo Tc  H 
 1.0000000000000000
     5.5332536084287911    0.0000000000000000    0.0000000000000000
     2.7666268042143956    4.7919386608893522    0.0000000000000000
     0.0000000000000000    0.0000000000000000   24.5178812649455296
 Tc  Mo  Tc  Mo  Tc  Mo  Tc  H  
   1   1   3   1   3   1   2   1
Cartesian
  0.0000000000000000  0.0000000000000000  9.9999992495511094
  1.3833134021071978  2.3959693304446761  9.9999992495511094
  2.7666268042143956  0.0000000000000000  9.9999992495511094
  4.1499402063215935  2.3959693304446761  9.9999992495511094
  5.5332536111954180  3.1946257755235474 12.2589406324727648
  4.1499402090882196  0.7986564450788716 12.2589406324727648
  2.7666268069810220  3.1946257755235474 12.2589406324727648
  1.3833134048738245  0.7986564450788716 12.2589406324727648
  2.7285290943051672  1.6193514521255914 14.4223054544500400
  4.1499573843074202  3.9932037813584791 14.3832658527727979
  5.5711605649531215  1.6192885435548514 14.4223031497692009
  6.9163694623156609  3.9494774033730664 14.4225477401526998
  4.1498099839645457  0.7986421075983983 15.4536841851970497
