Al Co Al Co Al Co Al  H 
 1.0000000000000000
     4.9409036503475612    0.0000000000000000    0.0000000000000000
     1.6480478833727590    4.6579466703715502    0.0000000000000000
     0.0000000000000000    0.0000000000000000   24.0345592991487251
 Al  Co  Al  Co  Al  Co  Al  H  
   1   2   2   2   1   2   2   1
Cartesian
  0.0016204999181062  0.0011455847200045  9.9999990973367989
  2.4720723250918870  0.0011455847200045  9.9999990973367989
  0.8256444416044858  2.3301189199057797  9.9999990973367989
  3.2960962667782665  2.3301189199057797  9.9999990973367989
  1.6480481333891333  1.1650594599528898 12.0172796495743626
  4.1184999585629143  1.1650594599528898 12.0172796495743626
  2.4720720750755127  3.4940327951386649 12.0172796495743626
  4.9425239002492933  3.4940327951386649 12.0172796495743626
  4.0813703205047993  4.7120130503923141 13.9927028871681713
  0.8626360357678813  2.2759588592615811 13.9927006759887149
 -0.0512377565753908 -0.0362238917184654 14.1234238508763283
  3.3471828309562763  2.3662330471109581 14.1233883518322436
  1.6472606306194544  1.1645119276376810 15.0126539470659282
