Al Co Al Co Al Co Al  H 
 1.0000000000000000
     4.9409036503475612    0.0000000000000000    0.0000000000000000
     1.6480478833727590    4.6579466703715502    0.0000000000000000
     0.0000000000000000    0.0000000000000000   24.0345592991487251
 Al  Co  Al  Co  Al  Co  Al  H  
   1   2   2   2   1   2   2   1
Cartesian
  0.0016204999181062  0.0011455847200045  9.9999990973367989
  2.4720723250918870  0.0011455847200045  9.9999990973367989
  0.8256444416044858  2.3301189199057797  9.9999990973367989
  3.2960962667782665  2.3301189199057797  9.9999990973367989
  1.6480481333891333  1.1650594599528898 12.0172796495743626
  4.1184999585629143  1.1650594599528898 12.0172796495743626
  2.4720720750755127  3.4940327951386649 12.0172796495743626
  4.9425239002492933  3.4940327951386649 12.0172796495743626
  4.1248522468544220  4.6624374992312827 13.9701660414317494
  0.8222799977580491  2.3277404698610611 13.9680225432952128
  0.0194642900535965 -0.0234107980437674 14.1056816113053749
  3.2788980406991470  2.3551316696525277 14.1056816113053749
  4.1099033732637231  1.1589822509058960 15.2283518351159870
