Co  N  H 
 1.0000000000000000
     4.2825499999999996    0.0000000000000000    0.0000000000000000
     0.0000000000000000    4.5225900000000001    0.0000000000000000
     0.0000000000000000    0.0000000000000000   33.8975999999999971
 Co  N   H  
  16   8   1
Cartesian
  0.9826700000000000  3.7255300000000000  0.7060900000000000
  3.2998799999999999  0.7970600000000000  0.7060900000000000
  1.1586000000000001  1.4642299999999999  2.1185999999999998
  3.1239499999999998  3.0583600000000000  2.1185999999999998
  0.9826700000000000  3.7255300000000000  3.5311100000000000
  3.2998799999999999  0.7970600000000000  3.5311100000000000
  1.1586000000000001  1.4642299999999999  4.9432900000000002
  3.1239499999999998  3.0583600000000000  4.9432900000000002
  0.9950300000000000  3.7029800000000002  6.3331999999999997
  3.3034200000000000  0.7755000000000000  6.3463000000000003
  1.1842800000000000  1.4291799999999999  7.7627800000000002
  3.1279599999999999  3.0062799999999998  7.7644799999999998
  0.9876500000000000  3.6717300000000002  9.1142299999999992
  3.3329100000000000  0.7355600000000000  9.1237999999999992
  1.1723699999999999  1.3026400000000000 10.6315700000000000
  3.1715100000000001  3.0687899999999999 10.6139299999999999
  2.1412700000000000  2.2612999999999999  0.7060900000000000
  0.0000000000000000  0.0000000000000000  2.1185999999999998
  2.1412700000000000  2.2612999999999999  3.5311100000000000
  0.0000000000000000  0.0000000000000000  4.9432900000000002
  2.1490600000000000  2.2390599999999998  6.3630300000000002
  0.0131800000000000 -0.0435400000000000  7.7279099999999996
  2.1550799999999999  2.2003900000000001  9.2866499999999998
  0.0227800000000000 -0.0697500000000000 10.5152099999999997
  2.2278899999999999  2.1598600000000001 11.7667500000000000
