Mo  N  H 
 1.0000000000000000
     5.2865300000000000    0.0000000000000000    0.0000000000000000
     9.0036383979999997    5.5429318380000003    0.0000000000000000
     0.0000000000000000    0.0000000000000000   29.5315000000000012
 Mo  N   H  
  16   8   1
Cartesian
  6.3187899999999999  1.0406899999999999  0.6328600000000000
  3.4695999999999998  0.2339700000000000  1.8280000000000001
  5.5341199999999997  2.3153400000000000  3.0940200000000000
  2.6848299999999998  1.5085900000000001  4.2888599999999997
  5.5342000000000002  0.8117300000000000  5.5801499999999997
  2.6685099999999999  0.0068100000000000  6.7142299999999997
  4.7312900000000004  2.0673100000000000  8.0159599999999998
  7.1759300000000001  1.3054399999999999  8.9691700000000001
 10.8206100000000003  3.8121499999999999  0.6328600000000000
  7.9714200000000002  3.0054300000000000  1.8280000000000001
 10.0359400000000001  5.0868000000000002  3.0940200000000000
  7.1866500000000002  4.2800599999999998  4.2888599999999997
 10.0345899999999997  3.5957599999999998  5.5818500000000002
  7.1813500000000001  2.7915199999999998  6.7251599999999998
  9.2328799999999998  4.8419299999999996  8.0161800000000003
 11.6744100000000000  4.0453400000000004  8.9596199999999993
  4.5018399999999996  2.0230600000000001  1.2305800000000000
  4.5017800000000001  0.5262200000000000  3.6914400000000001
  3.7103799999999998  1.7982000000000000  6.1660100000000000
  3.6455000000000002  0.2824600000000000  8.6284899999999993
  9.0036600000000000  4.7945300000000000  1.2305800000000000
  9.0036000000000005  3.2976800000000002  3.6914400000000001
  8.2071900000000007  4.5708399999999996  6.1489399999999996
  8.1948899999999991  3.0792199999999998  8.6371000000000002
  5.6588399999999996  2.3497400000000002  9.7359000000000009
