Ni Ag Ni Ag Ni Ag Ni  H 
 1.0000000000000000
     5.4828166119980608    0.0000000000000000    0.0000000000000000
     2.6759298106327405    4.7854646613474969    0.0000000000000000
     0.0000000000000000    0.0000000000000000   24.4933452666818638
 Ni  Ag  Ni  Ag  Ni  Ag  Ni  H  
   1   2   2   2   2   2   1   1
Cartesian
  0.0000000000000000  0.0000000000000000  9.9999993765042277
  1.3379649053163702  2.3927323306737485  9.9999993765042277
  2.7414083059990304  0.0000000000000000  9.9999993765042277
  4.0793732113154011  2.3927323306737485  9.9999993765042277
  5.4828161886333797  3.2159135431137202 12.2466726333409319
  4.1448512833170099  0.8231812124399718 12.2466726333409319
  2.7414078826343493  3.2159135431137202 12.2466726333409319
  1.4034429773179791  0.8231812124399718 12.2466726333409319
  2.6177029744918312  1.5472590217000743 14.3660760188374308
  4.0006431259389679  3.9539592479802628 14.6373898330769681
  5.4179598999977889  1.5687546637792593 14.6425132040797799
  6.7075564621523789  3.9224748672297300 14.3665138128907266
  3.3179811444151674  0.3386059700702099 15.2295300731989709
