Ta  N  H 
 1.0000000000000000
     5.3044300000000000    0.0000000000000000    0.0000000000000000
    -1.7217043839999999   10.4682206949999994    0.0000000000000000
     0.0000000000000000    0.0000000000000000   29.0263999999999989
 Ta  N   H  
  16  20   1
Cartesian
  1.9140400000000000  1.9387099999999999  3.1395000000000000
  2.9760900000000001  3.9254300000000000  0.9189800000000000
  1.9803200000000001  0.8732600000000000  0.1619700000000000
  4.7641400000000003  1.3983399999999999  1.5694600000000001
  3.9443199999999998  0.1104200000000000  6.7472399999999997
  4.7620800000000001  2.3648199999999999  4.6878299999999999
  2.8544700000000001  4.6441900000000000  3.6720400000000000
  0.3597400000000000  5.1040099999999997  5.4087600000000000
  1.0531900000000001  7.1728199999999998  3.1395000000000000
  2.1152400000000000  9.1595399999999998  0.9189800000000000
  1.1194700000000000  6.1073700000000004  0.1619700000000000
  3.9032800000000001  6.6324600000000000  1.5694600000000001
  2.9562800000000000  5.4909499999999998  6.5079500000000001
  3.9602300000000001  7.6688900000000002  4.6247900000000000
  2.0167500000000000  9.9114900000000006  3.6933400000000001
 -0.3989600000000000 10.3624500000000008  5.4500999999999999
 -0.6044400000000000  5.0164200000000001  0.5404700000000000
  3.7890799999999998  3.0296099999999999  2.6892999999999998
  0.1655000000000000  0.6904800000000000  3.4663300000000001
  1.2081900000000001  2.6465800000000002  1.2426200000000001
  2.8890400000000001  0.3074500000000000  2.0196600000000000
  1.1421800000000000  3.5324900000000001  4.2011399999999997
  0.1083900000000000  1.4580900000000001  6.2550200000000000
  1.2342200000000001  4.8029400000000004  7.0637999999999996
  2.9622999999999999  1.1321500000000000  4.8947399999999996
  3.8115299999999999  4.0210299999999997  5.5863100000000001
 -1.4652900000000000 10.2505299999999995  0.5404700000000000
  2.9282300000000001  8.2637199999999993  2.6892999999999998
 -0.6953500000000000  5.9245900000000002  3.4663300000000001
  0.3473400000000000  7.8806900000000004  1.2426200000000001
  2.0281899999999999  5.5415599999999996  2.0196600000000000
  0.3279300000000000  8.7893399999999993  4.2028600000000003
 -0.7904200000000000  6.7326400000000000  6.2632099999999999
  0.4338900000000000  9.9084299999999992  7.0514900000000003
  2.1124900000000002  6.3410900000000003  4.9127599999999996
  3.0144299999999999  9.2492500000000000  5.5998599999999996
 -2.5305499999999999 10.3959799999999998  8.4423100000000009
