Ni Ag Ni Ag Ni Ag Ni  H 
 1.0000000000000000
     5.4828166119980608    0.0000000000000000    0.0000000000000000
     2.6759298106327405    4.7854646613474969    0.0000000000000000
     0.0000000000000000    0.0000000000000000   24.4933452666818638
 Ni  Ag  Ni  Ag  Ni  Ag  Ni  H  
   1   2   2   2   2   2   1   1
Cartesian
  0.0000000000000000  0.0000000000000000  9.9999993765042277
  1.3379649053163702  2.3927323306737485  9.9999993765042277
  2.7414083059990304  0.0000000000000000  9.9999993765042277
  4.0793732113154011  2.3927323306737485  9.9999993765042277
  5.4828161886333797  3.2159135431137202 12.2466726333409319
  4.1448512833170099  0.8231812124399718 12.2466726333409319
  2.7414078826343493  3.2159135431137202 12.2466726333409319
  1.4034429773179791  0.8231812124399718 12.2466726333409319
  2.6053974642513720  1.5282325549640634 14.3038674041422418
  4.0237468834071652  3.9567883333351523 14.6520055755445355
  5.4174399592446871  1.5805599361232667 14.6519263640659450
  6.7214023371819218  3.9423808640867795 14.3860399567240158
 -0.4687190543874902 -0.2744391579202463 15.5105959373497804
