Ni Cu Ni Cu Ni Cu  H 
 1.0000000000000000
     5.0346206437154999    0.0000000000000000    0.0000000000000000
    -2.5173098218577858    4.3601086914486205    0.0000000000000000
     0.0000000000000000    0.0000000000000000   24.1107482937570659
 Ni  Cu  Ni  Cu  Ni  Cu  H  
   3   1   3   1   3   1   1
Cartesian
  0.0000000000000000  0.0000000000000000  9.9999990870613047
 -1.2586549109288929  2.1800543457243102  9.9999990870613047
  1.2586554109288570  2.1800543457243102  9.9999990870613047
  2.5173103218577499  0.0000000000000000  9.9999990870613047
  2.5173104910417150  1.4533695623628373 12.0553741468785329
  1.2586555801128219  3.6334239080871473 12.0553741468785329
 -1.2586547417449283  3.6334239080871473 12.0553741468785329
  0.0000001691839648  1.4533695623628373 12.0553741468785329
 -0.0244146795938522  2.9047393913951027 14.0944935714208714
  1.2434846241287079  0.7122970961364310 14.0772112281513895
  3.7456413789855243  0.7274687745052824 14.0810762293243741
  2.4819795329205041  2.9086451418800330 14.1961636783829910
 -1.1777522199698278  2.8816395355478077 15.1920421512305079
