Ta  N  H 
 1.0000000000000000
     5.3044300000000000    0.0000000000000000    0.0000000000000000
    -1.7217043839999999   10.4682206949999994    0.0000000000000000
     0.0000000000000000    0.0000000000000000   29.0263999999999989
 Ta  N   H  
  16  20   1
Cartesian
  1.9140400000000000  1.9387099999999999  3.1395000000000000
  2.9760900000000001  3.9254300000000000  0.9189800000000000
  1.9803200000000001  0.8732600000000000  0.1619700000000000
  4.7641400000000003  1.3983399999999999  1.5694600000000001
  3.8835199999999999  0.1701700000000000  6.7016200000000001
  4.7691200000000000  2.3760500000000002  4.6786099999999999
  2.8547699999999998  4.6459200000000003  3.6714799999999999
  0.3593200000000000  5.1074000000000002  5.4108499999999999
  1.0531900000000001  7.1728199999999998  3.1395000000000000
  2.1152400000000000  9.1595399999999998  0.9189800000000000
  1.1194700000000000  6.1073700000000004  0.1619700000000000
  3.9032800000000001  6.6324600000000000  1.5694600000000001
  2.9554200000000002  5.4893000000000001  6.5109399999999997
  3.9519299999999999  7.6715600000000004  4.6316699999999997
  2.0130599999999998  9.9032599999999995  3.6964899999999998
 -0.4332100000000000 10.3559000000000001  5.4366500000000002
 -0.6044400000000000  5.0164200000000001  0.5404700000000000
  3.7890799999999998  3.0296099999999999  2.6892999999999998
  0.1655000000000000  0.6904800000000000  3.4663300000000001
  1.2081900000000001  2.6465800000000002  1.2426200000000001
  2.8890400000000001  0.3074500000000000  2.0196600000000000
  1.1469800000000001  3.5384899999999999  4.1969200000000004
  0.1246800000000000  1.4667699999999999  6.2295499999999997
  1.2318400000000000  4.8054199999999998  7.0656800000000004
  2.9651700000000001  1.1296299999999999  4.9257900000000001
  3.8115700000000001  4.0244499999999999  5.5848899999999997
 -1.4652900000000000 10.2505299999999995  0.5404700000000000
  2.9282300000000001  8.2637199999999993  2.6892999999999998
 -0.6953500000000000  5.9245900000000002  3.4663300000000001
  0.3473400000000000  7.8806900000000004  1.2426200000000001
  2.0281899999999999  5.5415599999999996  2.0196600000000000
  0.3175600000000000  8.7870000000000008  4.1935599999999997
 -0.7926200000000000  6.7325600000000003  6.2664499999999999
  0.4158500000000000  9.8813099999999991  7.0281700000000003
  2.1109599999999999  6.3409000000000004  4.9149399999999996
  2.9979499999999999  9.2554800000000004  5.6011600000000001
  4.2921399999999998  0.3429200000000000  8.4433900000000008
