Ni  N  H 
 1.0000000000000000
     4.3013100000000000    0.0000000000000000    0.0000000000000000
     0.0000000000000000    7.9770300000000001    0.0000000000000000
     0.0000000000000000    0.0000000000000000   27.6332999999999984
 Ni  N   H  
  24   8   1
Cartesian
  2.1506500000000002  1.3124600000000000  4.1972199999999997
  2.1506500000000002  5.3009800000000000  1.8942600000000001
  0.0000000000000000  2.6760500000000000  0.3788500000000000
  0.0000000000000000  6.6645700000000003  2.6815400000000000
  0.0000000000000000  3.9885199999999998  2.6522399999999999
  0.0000000000000000  0.0000000000000000  0.3492800000000000
  2.1506500000000002  6.6645700000000003  4.1972199999999997
  2.1506500000000002  2.6760500000000000  1.8942600000000001
  2.1506500000000002  3.9885199999999998  4.2267900000000003
  2.1506500000000002  0.0000000000000000  1.9238299999999999
  0.0000000000000000  5.3009800000000000  0.3788500000000000
  0.0000000000000000  1.3124600000000000  2.6815400000000000
  2.1579500000000000  1.3354200000000001  8.7802299999999995
  2.1173899999999999  5.2697500000000002  6.4688100000000004
  0.0009100000000000  2.6924899999999998  4.9811399999999999
 -0.0278900000000000  6.6176599999999999  7.2973100000000004
  0.0000000000000000  3.9885199999999998  7.3248400000000000
  0.0000000000000000  0.0000000000000000  4.9675200000000004
  2.1433599999999999  6.6416100000000000  8.7802299999999995
  2.1839200000000001  2.7072799999999999  6.4688100000000004
  2.1506500000000002  3.9885199999999998  8.7020800000000005
  2.1506500000000002  0.0000000000000000  6.4824299999999999
 -0.0009100000000000  5.2845399999999998  4.9811399999999999
  0.0278900000000000  1.3593700000000000  7.2973100000000004
  1.0753299999999999  5.3180500000000004  3.4395199999999999
  1.0753299999999999  1.3295300000000001  1.1365600000000000
  3.2259799999999998  2.6589800000000001  3.4395199999999999
  3.2259799999999998  6.6475000000000000  1.1365600000000000
  1.0861499999999999  5.3591699999999998  8.0863200000000006
  1.0759500000000000  1.3490700000000000  5.7460800000000001
  3.2151600000000000  2.6178599999999999  8.0863200000000006
  3.2253599999999998  6.6279599999999999  5.7460800000000001
  2.1506500000000002  3.9885199999999998 10.1966999999999999
