Ta  N  H 
 1.0000000000000000
     5.3044300000000000    0.0000000000000000    0.0000000000000000
    -1.7217043839999999   10.4682206949999994    0.0000000000000000
     0.0000000000000000    0.0000000000000000   29.0263999999999989
 Ta  N   H  
  16  20   1
Cartesian
  1.9140400000000000  1.9387099999999999  3.1395000000000000
  2.9760900000000001  3.9254300000000000  0.9189800000000000
  1.9803200000000001  0.8732600000000000  0.1619700000000000
  4.7641400000000003  1.3983399999999999  1.5694600000000001
  3.7619699999999998  0.3057200000000000  6.4394400000000003
  4.7739300000000000  2.4809500000000000  4.6016899999999996
  2.8775200000000001  4.6736000000000004  3.6832199999999999
  0.3517600000000000  5.1377800000000002  5.4255800000000001
  1.0531900000000001  7.1728199999999998  3.1395000000000000
  2.1152400000000000  9.1595399999999998  0.9189800000000000
  1.1194700000000000  6.1073700000000004  0.1619700000000000
  3.9032800000000001  6.6324600000000000  1.5694600000000001
  2.9535100000000001  5.5148700000000002  6.5002100000000000
  3.9198200000000001  7.7080599999999997  4.6214300000000001
  1.9959800000000001  9.8796099999999996  3.6965599999999998
 -0.5647700000000000 10.4422999999999995  5.2641999999999998
 -0.6044400000000000  5.0164200000000001  0.5404700000000000
  3.7890799999999998  3.0296099999999999  2.6892999999999998
  0.1655000000000000  0.6904800000000000  3.4663300000000001
  1.2081900000000001  2.6465800000000002  1.2426200000000001
  2.8890400000000001  0.3074500000000000  2.0196600000000000
  1.1685200000000000  3.5754400000000000  4.1938100000000000
  0.0479700000000000  1.4935900000000000  6.2779900000000000
  1.2318499999999999  4.8429500000000001  7.0868300000000000
  2.9606499999999998  1.1753899999999999  4.8662500000000000
  3.8237600000000000  4.0335200000000002  5.6129699999999998
 -1.4652900000000000 10.2505299999999995  0.5404700000000000
  2.9282300000000001  8.2637199999999993  2.6892999999999998
 -0.6953500000000000  5.9245900000000002  3.4663300000000001
  0.3473400000000000  7.8806900000000004  1.2426200000000001
  2.0281899999999999  5.5415599999999996  2.0196600000000000
  0.2961100000000000  8.8111899999999999  4.1961599999999999
 -0.7965500000000000  6.7609500000000002  6.2698000000000000
  0.3499100000000000 10.1873199999999997  7.2249800000000004
  2.1011700000000002  6.3703599999999998  4.9081400000000004
  2.9555099999999999  9.2628500000000003  5.6131099999999998
  1.4366800000000000 -0.2371200000000000  8.0200300000000002
