Ni Sn Ni Sn Ni Sn  H 
 1.0000000000000000
     5.3076046243972694    0.0000000000000000    0.0000000000000000
    -2.6538028121985997    4.5965206747184775    0.0000000000000000
     0.0000000000000000    0.0000000000000000   24.3336392779837638
 Ni  Sn  Ni  Sn  Ni  Sn  H  
   3   1   3   1   3   1   1
Cartesian
  0.0000000000000000  0.0000000000000000  9.9999991444200340
 -1.3269014060992999  2.2982603373592387  9.9999991444200340
  1.3269009060993349  2.2982603373592387  9.9999991444200340
  2.6538023121986347  0.0000000000000000  9.9999991444200340
  2.6538021481857825  1.5321735567073189 12.1668196389918819
  1.3269007420864827  3.8304338940665579 12.1668196389918819
 -1.3269015701121523  3.8304338940665579 12.1668196389918819
 -0.0000001640128526  1.5321735567073189 12.1668196389918819
 -0.0241281021840614  3.0702432221692817 14.2753394105540004
  1.3200182612578826  0.7422461447639777 14.2753257593823655
  3.9576017533244015  0.7528091423283491 14.2858142149194371
  2.6312811344953011  3.0512499252997149 14.5383967579502862
 -0.0152738823775391  4.5877396333066773 15.0091149252473191
