Ta  N  H 
 1.0000000000000000
     5.3044300000000000    0.0000000000000000    0.0000000000000000
     0.0000000000000000    9.7099200000000003    0.0000000000000000
     0.0000000000000000    0.0000000000000000   27.3815999999999988
 Ta  N   H  
  16  20   1
Cartesian
  0.4326300000000000  3.9844700000000000  3.6924100000000002
  1.2934900000000000  8.8394300000000001  1.7368100000000000
  4.8098999999999998  6.7384899999999996  3.2844199999999999
  0.3663200000000000  1.8835299999999999  1.3285600000000000
  3.2163900000000001  2.9714299999999998  2.5831800000000000
  4.0772500000000003  7.8263900000000000  0.6273100000000000
  2.2892299999999999  5.7254500000000004  2.1749200000000002
  3.1500900000000001  0.8704900000000000  0.2190500000000000
  3.8446799999999999  3.9846800000000000  7.3499699999999999
  4.9840700000000000  8.8645700000000005  5.8182700000000001
  3.1330000000000000  6.8762299999999996  7.0285399999999996
  3.9545800000000000  1.8626300000000000  5.2952100000000000
  1.4249600000000000  2.8974700000000002  6.3475400000000004
  2.3661300000000001  7.9078600000000003  4.4855900000000002
  0.5163000000000000  5.7401900000000001  6.0588499999999996
  1.4220400000000000  0.9009900000000000  4.0484299999999998
  4.0131699999999997  4.8549600000000002  2.9336600000000002
  4.8740300000000003  0.0000000000000000  0.9778000000000000
  4.9649500000000000  1.9357700000000000  3.3525999999999998
  0.5213700000000000  6.7907299999999999  1.3967400000000001
  3.1022400000000001  5.8948900000000002  0.1979700000000000
  2.2413900000000000  1.0399300000000000  2.1538400000000002
  1.3413299999999999  3.8150300000000001  1.7576200000000000
  0.4804800000000000  8.6699900000000003  3.7134900000000002
  3.0613500000000000  7.7741499999999997  2.5147300000000001
  3.9222000000000001  2.9191900000000000  0.5588600000000000
  2.1431300000000002  4.8960600000000003  7.0028400000000000
  3.1940000000000000  0.0043200000000000  4.9341299999999997
  3.1541299999999999  2.1506599999999998  7.2040100000000002
  4.0846299999999998  6.8143500000000001  5.2721499999999999
  1.3597500000000000  5.8906299999999998  4.0885800000000003
  0.5035700000000000  1.0348200000000001  6.0680399999999999
  4.7909199999999998  3.8769600000000000  5.6374800000000000
  4.2522700000000002  8.3030700000000000  7.6374399999999998
  1.3507100000000001  7.6816800000000001  6.3366699999999998
  2.1777700000000002  2.9370200000000000  4.4882099999999996
  4.8596800000000000  6.9635999999999996  7.9114100000000001
