Ta  N  H 
 1.0000000000000000
     5.3044300000000000    0.0000000000000000    0.0000000000000000
     0.0000000000000000    9.7099200000000003    0.0000000000000000
     0.0000000000000000    0.0000000000000000   27.3815999999999988
 Ta  N   H  
  16  20   1
Cartesian
  0.4326300000000000  3.9844700000000000  3.6924100000000002
  1.2934900000000000  8.8394300000000001  1.7368100000000000
  4.8098999999999998  6.7384899999999996  3.2844199999999999
  0.3663200000000000  1.8835299999999999  1.3285600000000000
  3.2163900000000001  2.9714299999999998  2.5831800000000000
  4.0772500000000003  7.8263900000000000  0.6273100000000000
  2.2892299999999999  5.7254500000000004  2.1749200000000002
  3.1500900000000001  0.8704900000000000  0.2190500000000000
  3.8742800000000002  3.9833900000000000  7.4262199999999998
  4.9070999999999998  8.8830799999999996  5.8797100000000002
  3.1468200000000000  6.9034399999999998  7.0633699999999999
  3.9596300000000002  1.8942600000000001  5.2861300000000000
  1.4168799999999999  2.8620299999999999  6.3464200000000002
  2.3816199999999998  7.9175399999999998  4.4784699999999997
  0.5774100000000000  5.7664099999999996  6.0234800000000002
  1.4205300000000001  0.8981700000000000  4.0356100000000001
  4.0131699999999997  4.8549600000000002  2.9336600000000002
  4.8740300000000003  0.0000000000000000  0.9778000000000000
  4.9649500000000000  1.9357700000000000  3.3525999999999998
  0.5213700000000000  6.7907299999999999  1.3967400000000001
  3.1022400000000001  5.8948900000000002  0.1979700000000000
  2.2413900000000000  1.0399300000000000  2.1538400000000002
  1.3413299999999999  3.8150300000000001  1.7576200000000000
  0.4804800000000000  8.6699900000000003  3.7134900000000002
  3.0613500000000000  7.7741499999999997  2.5147300000000001
  3.9222000000000001  2.9191900000000000  0.5588600000000000
  2.1349700000000000  4.8904300000000003  7.0234600000000000
  3.1924100000000002  0.0251100000000000  4.9227800000000004
  3.1226699999999998  2.1830699999999998  7.1926699999999997
  4.0920100000000001  6.8351400000000000  5.3072400000000002
  1.3593999999999999  5.8910900000000002  4.0918999999999999
  0.5006200000000000  1.0451400000000000  6.0579499999999999
  4.8306500000000003  3.8894099999999998  5.6879200000000001
  4.1492300000000002  8.4248700000000003  7.5940799999999999
  1.3821300000000001  7.6634099999999998  6.3282100000000003
  2.1727400000000001  2.9455900000000002  4.4968100000000000
  4.8775399999999998  4.1859500000000001  8.9273500000000006
