Ta  N  H 
 1.0000000000000000
     5.3044300000000000    0.0000000000000000    0.0000000000000000
     0.0000000000000000    9.7099200000000003    0.0000000000000000
     0.0000000000000000    0.0000000000000000   27.3815999999999988
 Ta  N   H  
  16  20   1
Cartesian
  0.4326300000000000  3.9844700000000000  3.6924100000000002
  1.2934900000000000  8.8394300000000001  1.7368100000000000
  4.8098999999999998  6.7384899999999996  3.2844199999999999
  0.3663200000000000  1.8835299999999999  1.3285600000000000
  3.2163900000000001  2.9714299999999998  2.5831800000000000
  4.0772500000000003  7.8263900000000000  0.6273100000000000
  2.2892299999999999  5.7254500000000004  2.1749200000000002
  3.1500900000000001  0.8704900000000000  0.2190500000000000
  3.9062000000000001  3.9588100000000002  7.4122199999999996
  4.9068300000000002  8.8862699999999997  5.8810599999999997
  3.1539100000000002  6.8995300000000004  7.0610700000000000
  3.9573200000000002  1.8924399999999999  5.2775299999999996
  1.4074599999999999  2.8752300000000002  6.3627200000000004
  2.3836599999999999  7.9163699999999997  4.4788100000000002
  0.5914300000000000  5.7670300000000001  6.0222499999999997
  1.4197200000000001  0.8991100000000000  4.0378299999999996
  4.0131699999999997  4.8549600000000002  2.9336600000000002
  4.8740300000000003  0.0000000000000000  0.9778000000000000
  4.9649500000000000  1.9357700000000000  3.3525999999999998
  0.5213700000000000  6.7907299999999999  1.3967400000000001
  3.1022400000000001  5.8948900000000002  0.1979700000000000
  2.2413900000000000  1.0399300000000000  2.1538400000000002
  1.3413299999999999  3.8150300000000001  1.7576200000000000
  0.4804800000000000  8.6699900000000003  3.7134900000000002
  3.0613500000000000  7.7741499999999997  2.5147300000000001
  3.9222000000000001  2.9191900000000000  0.5588600000000000
  2.1475200000000001  4.8946699999999996  7.0190500000000000
  3.1920000000000002  0.0251100000000000  4.9225199999999996
  3.1189600000000000  2.1806999999999999  7.1853800000000003
  4.0999200000000000  6.8353700000000002  5.3072200000000000
  1.3625799999999999  5.8929099999999996  4.0891900000000003
  0.4990000000000000  1.0496300000000001  6.0551399999999997
  4.8237500000000004  3.8982500000000000  5.6726999999999999
  4.1529800000000003  8.4246800000000004  7.5950499999999996
  1.3870899999999999  7.6630399999999996  6.3307799999999999
  2.1698400000000002  2.9435600000000002  4.5056000000000003
 -0.1147800000000000  3.8855900000000001  8.7206200000000003
