Ni Cu Ni Cu Ni Cu  H 
 1.0000000000000000
     5.0346206437154999    0.0000000000000000    0.0000000000000000
    -2.5173098218577858    4.3601086914486205    0.0000000000000000
     0.0000000000000000    0.0000000000000000   24.1107482937570659
 Ni  Cu  Ni  Cu  Ni  Cu  H  
   3   1   3   1   3   1   1
Cartesian
  0.0000000000000000  0.0000000000000000  9.9999990870613047
 -1.2586549109288929  2.1800543457243102  9.9999990870613047
  1.2586554109288570  2.1800543457243102  9.9999990870613047
  2.5173103218577499  0.0000000000000000  9.9999990870613047
  2.5173104910417150  1.4533695623628373 12.0553741468785329
  1.2586555801128219  3.6334239080871473 12.0553741468785329
 -1.2586547417449283  3.6334239080871473 12.0553741468785329
  0.0000001691839648  1.4533695623628373 12.0553741468785329
 -0.0045418442843581  2.9219669438540370 14.1011056548114535
  1.2742513400091324  0.7175760584936243 14.1040485645266926
  3.7605299398720224  0.7228693830488471 14.1008965181807557
  2.5093865983105168  2.9112560272857766 14.1472616077033901
 -0.0001439644480442  1.4534139439092075 14.9735796036441755
