Re  N  H 
 1.0000000000000000
     5.5853799999999998    0.0000000000000000    0.0000000000000000
     1.4576319419999999    5.4095059960000000    0.0000000000000000
     0.0000000000000000    0.0000000000000000   26.6293000000000006
 Re  N   H  
   8  16   1
Cartesian
  6.7305799999999998  4.3482700000000003  0.1003900000000000
  1.1452100000000001  0.0971500000000000  2.3194100000000000
  3.9378799999999998  2.2140599999999999  1.2145600000000001
  5.3955200000000003  3.3724500000000002  3.4335800000000001
  2.6445799999999999  1.2273200000000000  4.4710500000000000
  4.0993599999999999  2.4000200000000000  7.0188100000000002
  1.2953900000000000  4.4521699999999997  5.7585300000000004
  1.3372700000000000  0.8560900000000000  7.9117600000000001
  2.6632799999999999  1.2080500000000001  2.2866599999999999
  1.2056500000000001  0.0497100000000000  0.0673700000000000
  1.3282200000000000  2.7102700000000000  4.3262000000000000
  5.4560300000000002  1.5519300000000000  2.1071800000000001
  5.2498600000000000  4.9786900000000003  4.3706699999999996
  3.7922199999999999  3.8203000000000000  2.1516500000000001
  2.4571299999999998  5.3572499999999996  4.1730799999999997
  6.5848800000000001  4.1989099999999997  1.9540599999999999
  5.6184399999999997  3.5257299999999998  6.6852999999999998
  4.1105000000000000  2.3598699999999999  4.3981800000000000
  2.7961800000000001  5.0502200000000004  9.2347999999999999
  2.7994800000000000  3.8196500000000002  6.5239700000000003
  1.1168800000000001  2.3262200000000002  8.7746700000000004
  5.3216500000000000  0.7137000000000000  6.8147799999999998
  3.9244800000000000  2.4279899999999999  8.7137300000000000
  2.5847000000000002  1.2029700000000001  6.4040499999999998
  2.9920800000000001  4.0447100000000002  9.3603600000000000
