Cr  N  H 
 1.0000000000000000
     4.1217300000000003    0.0000000000000000    0.0000000000000000
     4.1258278140000000    9.1924810959999999    0.0000000000000000
     0.0000000000000000    0.0000000000000000   29.4710000000000001
 Cr  N   H  
  16  16   1
Cartesian
  4.1239600000000003  1.6176500000000000  3.2235399999999998
  4.1232499999999996  2.5291700000000001  0.4603400000000000
  2.0637400000000001  3.4535700000000000  2.3022700000000000
  2.0617500000000000  0.6932000000000000  1.3815999999999999
  4.1246000000000000  3.6216499999999998  6.5848199999999997
  4.1255300000000004  4.4061399999999997  4.0754299999999999
  4.1083999999999996  0.4329900000000000  5.8073800000000002
  2.0616900000000000  2.4706000000000001  5.3227099999999998
  6.1868699999999999  6.2138900000000001  3.2235399999999998
  6.1861600000000001  7.1254099999999996  0.4603400000000000
  4.1266600000000002  8.0498100000000008  2.3022700000000000
  4.1246600000000004  5.2894500000000004  1.3815999999999999
  6.1974799999999997  8.0488099999999996  6.6360099999999997
  6.1875600000000004  9.0706699999999998  4.1680400000000004
  6.1875000000000000  5.3067000000000002  6.0758099999999997
  4.1263899999999998  7.0726000000000004  5.1769699999999998
  4.1226799999999999  0.6933400000000000  1.3815999999999999
  4.1245500000000002  3.4535200000000001  2.3022700000000000
  2.0631900000000001  1.6176900000000001  3.2235399999999998
  2.0623200000000002  2.5291299999999999  0.4603400000000000
  4.1239999999999997  2.4635099999999999  5.1360700000000001
  2.0620599999999998  0.7158099999999999  6.0082800000000001
  2.0638200000000002  3.5648399999999998  6.9090499999999997
  2.0637599999999998  4.3917099999999998  4.1984399999999997
  6.1855900000000004  5.2895799999999999  1.3815999999999999
  6.1874599999999997  8.0497599999999991  2.3022700000000000
  4.1261099999999997  6.2139300000000004  3.2235399999999998
  4.1252399999999998  7.1253700000000002  0.4603400000000000
  6.1865699999999997  7.1551900000000002  5.0066100000000002
  4.1261500000000000  5.3334299999999999  5.9348500000000000
  4.1314900000000003  8.1406700000000001  6.9035299999999999
  4.1265799999999997  8.9110600000000009  4.1086999999999998
  6.1900599999999999  6.4897600000000004  7.4479600000000001
