Re  N  H 
 1.0000000000000000
     5.5853799999999998    0.0000000000000000    0.0000000000000000
     1.4576319419999999    5.4095059960000000    0.0000000000000000
     0.0000000000000000    0.0000000000000000   26.6293000000000006
 Re  N   H  
   8  16   1
Cartesian
  6.7305799999999998  4.3482700000000003  0.1003900000000000
  1.1452100000000001  0.0971500000000000  2.3194100000000000
  3.9378799999999998  2.2140599999999999  1.2145600000000001
  5.3955200000000003  3.3724500000000002  3.4335800000000001
  2.6616399999999998  1.2334900000000000  4.4540199999999999
  4.3245399999999998  2.1603200000000000  7.0685399999999996
  1.1903300000000001  4.3486000000000002  5.4442899999999996
  1.2062100000000000  0.9991500000000000  7.8358900000000000
  2.6632799999999999  1.2080500000000001  2.2866599999999999
  1.2056500000000001  0.0497100000000000  0.0673700000000000
  1.3282200000000000  2.7102700000000000  4.3262000000000000
  5.4560300000000002  1.5519300000000000  2.1071800000000001
  5.2498600000000000  4.9786900000000003  4.3706699999999996
  3.7922199999999999  3.8203000000000000  2.1516500000000001
  2.4571299999999998  5.3572499999999996  4.1730799999999997
  6.5848800000000001  4.1989099999999997  1.9540599999999999
  5.7093299999999996  3.2747199999999999  6.6376999999999997
  4.1438699999999997  2.3618999999999999  4.4252599999999997
  3.2294100000000001  4.5622999999999996  7.6496000000000004
  2.9482900000000001  3.8471199999999999  6.6950300000000000
  1.1201000000000001  1.1370899999999999  9.5288100000000000
  5.1913999999999998  0.3980900000000000  6.8467000000000002
  4.0184199999999999  2.1727400000000001  8.8124599999999997
  2.6233000000000000  1.3372200000000001  6.4018899999999999
  4.3483900000000002  2.5879200000000000  9.6879600000000003
