Ni  N  H 
 1.0000000000000000
     4.3013100000000000    0.0000000000000000    0.0000000000000000
     0.0000000000000000    7.9770300000000001    0.0000000000000000
     0.0000000000000000    0.0000000000000000   27.6332999999999984
 Ni  N   H  
  24   8   1
Cartesian
  2.1506500000000002  1.3124600000000000  4.1972199999999997
  2.1506500000000002  5.3009800000000000  1.8942600000000001
  0.0000000000000000  2.6760500000000000  0.3788500000000000
  0.0000000000000000  6.6645700000000003  2.6815400000000000
  0.0000000000000000  3.9885199999999998  2.6522399999999999
  0.0000000000000000  0.0000000000000000  0.3492800000000000
  2.1506500000000002  6.6645700000000003  4.1972199999999997
  2.1506500000000002  2.6760500000000000  1.8942600000000001
  2.1506500000000002  3.9885199999999998  4.2267900000000003
  2.1506500000000002  0.0000000000000000  1.9238299999999999
  0.0000000000000000  5.3009800000000000  0.3788500000000000
  0.0000000000000000  1.3124600000000000  2.6815400000000000
  2.1995700000000000  1.4467800000000000  8.9189100000000003
  2.1369400000000001  5.2644799999999998  6.4768600000000003
  0.0096500000000000  2.6872300000000000  4.9752999999999998
  0.0041700000000000  6.6182200000000000  7.2814199999999998
 -0.0080400000000000  4.0100699999999998  7.3353000000000002
  0.0082700000000000 -0.0079300000000000  4.9520499999999998
  2.1503500000000000  6.7144700000000004  8.7116299999999995
  2.1946599999999998  2.6946300000000001  6.4402900000000001
  2.0910500000000001  3.9214899999999999  8.6947399999999995
  2.1784100000000000  0.0162800000000000  6.4769500000000004
  0.0045800000000000  5.2779699999999998  4.9849800000000002
  0.0341600000000000  1.3329500000000001  7.2836299999999996
  1.0753299999999999  5.3180500000000004  3.4395199999999999
  1.0753299999999999  1.3295300000000001  1.1365600000000000
  3.2259799999999998  2.6589800000000001  3.4395199999999999
  3.2259799999999998  6.6475000000000000  1.1365600000000000
  1.1122300000000001  5.3659600000000003  8.1089199999999995
  1.0813600000000001  1.3376200000000000  5.7383100000000002
  3.2411200000000000  2.6210800000000001  8.0311500000000002
  3.2338200000000001  6.6258200000000000  5.7454099999999997
  1.6104499999999999  2.8546600000000000  9.8221900000000009
