Cr  N  H 
 1.0000000000000000
     6.2028200000000000    0.0000000000000000    0.0000000000000000
     3.1014100000000000    5.3717996950000000    0.0000000000000000
     0.0000000000000000    0.0000000000000000   30.3874999999999993
 Cr  N   H  
  16  16   1
Cartesian
  1.5506899999999999  0.2238200000000000  1.5825800000000001
  3.1014300000000001  1.1191300000000000  4.1150799999999998
  1.5507100000000000  2.0144299999999999  6.4341900000000001
  1.5507000000000000  0.3404500000000000  9.1094100000000005
  3.1013899999999999  2.9097200000000001  1.5825800000000001
  4.6521299999999997  3.8050299999999999  4.1150799999999998
  3.1128600000000000  4.6937300000000004  6.6974200000000002
  3.0004000000000000  2.8513999999999999  9.1094100000000005
  4.6520999999999999  0.2238200000000000  1.5825800000000001
  6.2028400000000001  1.1191300000000000  4.1150799999999998
  4.6521200000000000  2.0276399999999999  6.6974200000000002
  4.6521100000000004  0.2238200000000000  9.0552899999999994
  6.2027999999999999  2.9097200000000001  1.5825800000000001
  7.7535400000000001  3.8050299999999999  4.1150799999999998
  6.1913900000000002  4.6937199999999999  6.6974200000000002
  6.3038100000000004  2.8514100000000000  9.1094100000000005
  1.5507100000000000  2.0144199999999999  0.9496100000000000
  1.5506899999999999  0.2238200000000000  3.4817999999999998
  3.1370100000000001  1.0985799999999999  6.0016299999999996
  1.5507000000000000  2.0144199999999999  8.2628400000000006
  3.1014100000000000  4.7003199999999996  0.9496100000000000
  3.1013899999999999  2.9097200000000001  3.4817999999999998
  4.6521200000000000  3.8050299999999999  6.0203400000000000
  3.1271000000000000  4.6854800000000001  8.6466600000000007
  4.6521200000000000  2.0144199999999999  0.9496100000000000
  4.6520999999999999  0.2238200000000000  3.4817999999999998
  6.1672300000000000  1.0985799999999999  6.0016299999999996
  4.6521100000000004  2.0440900000000002  8.6466600000000007
  6.2028200000000000  4.7003199999999996  0.9496100000000000
  6.2027999999999999  2.9097200000000001  3.4817999999999998
  7.7535299999999996  3.8461300000000000  6.0016299999999996
  6.1771200000000004  4.6854800000000001  8.6466600000000007
  1.5507100000000000  2.0144299999999999 10.4058899999999994
