Cr  N  H 
 1.0000000000000000
     6.2028200000000000    0.0000000000000000    0.0000000000000000
     3.1014100000000000    5.3717996950000000    0.0000000000000000
     0.0000000000000000    0.0000000000000000   30.3874999999999993
 Cr  N   H  
  16  16   1
Cartesian
  1.5506899999999999  0.2238200000000000  1.5825800000000001
  3.1014300000000001  1.1191300000000000  4.1150799999999998
  1.5468500000000001  2.0287600000000001  6.6362600000000000
  1.5655800000000000  0.2529500000000000  9.0222800000000003
  3.1013899999999999  2.9097200000000001  1.5825800000000001
  4.6521299999999997  3.8050299999999999  4.1150799999999998
  3.1014300000000001  4.7162100000000002  6.6634900000000004
  3.1013600000000001  2.9254400000000000  9.0268200000000007
  4.6520999999999999  0.2238200000000000  1.5825800000000001
  6.2028400000000001  1.1191300000000000  4.1150799999999998
  4.6560100000000002  2.0287799999999998  6.6364200000000002
  4.6372900000000001  0.2529200000000000  9.0222499999999997
  6.2027999999999999  2.9097200000000001  1.5825800000000001
  7.7535400000000001  3.8050299999999999  4.1150799999999998
  6.2028499999999998  4.7072500000000002  6.5957900000000000
  6.2029300000000003  2.9719199999999999  9.0965399999999992
  1.5507100000000000  2.0144199999999999  0.9496100000000000
  1.5506899999999999  0.2238200000000000  3.4817999999999998
  3.1014100000000000  1.1371300000000000  6.0043300000000004
  1.5236900000000000  2.0560100000000001  8.5660100000000003
  3.1014100000000000  4.7003199999999996  0.9496100000000000
  3.1013899999999999  2.9097200000000001  3.4817999999999998
  4.6405300000000000  3.8188700000000000  6.0034900000000002
  3.1014300000000001  4.7262500000000003  8.5873799999999996
  4.6521200000000000  2.0144199999999999  0.9496100000000000
  4.6520999999999999  0.2238200000000000  3.4817999999999998
  6.2027999999999999  1.1274800000000000  6.0078199999999997
  4.6793500000000003  2.0560399999999999  8.5660500000000006
  6.2028200000000000  4.7003199999999996  0.9496100000000000
  6.2027999999999999  2.9097200000000001  3.4817999999999998
  7.7651399999999997  3.8188499999999999  6.0034900000000002
  6.2028200000000000  4.7246100000000002  8.4972499999999993
  6.2027400000000004  3.3155399999999999 10.6953300000000002
