Tc  N  H 
 1.0000000000000000
     9.7690699999999993    0.0000000000000000    0.0000000000000000
     0.0000000000000000    4.9028600000000004    0.0000000000000000
     0.0000000000000000    0.0000000000000000   28.3065999999999995
 Tc  N   H  
  24  12   1
Cartesian
  5.9376400000000000  1.6342699999999999  2.1230000000000002
  5.9376400000000000  4.0857000000000001  0.7076600000000000
  3.8314300000000001  3.2685900000000001  2.1230000000000002
  3.8314300000000001  0.8171600000000000  0.7076600000000000
  1.0531100000000000  3.2685900000000001  2.1230000000000002
  1.0531100000000000  0.8171600000000000  0.7076600000000000
  8.7159600000000008  1.6342699999999999  2.1230000000000002
  8.7159600000000008  4.0857000000000001  0.7076600000000000
  5.9376499999999997  1.6172200000000001  4.9359599999999997
  5.9376400000000000  4.0857000000000001  3.5383200000000001
  3.8409100000000000  3.2654999999999998  4.9358899999999997
  3.8314300000000001  0.8171600000000000  3.5383200000000001
  1.0436200000000000  3.2654999999999998  4.9358899999999997
  1.0531100000000000  0.8171600000000000  3.5383200000000001
  8.7159499999999994  1.6172200000000001  4.9359599999999997
  8.7159600000000008  4.0857000000000001  3.5383200000000001
  5.9208800000000004  1.6936500000000001  7.6245799999999999
  5.9369399999999999  4.0895599999999996  6.3889100000000001
  3.8111500000000000  3.2121300000000002  7.6816500000000003
  3.8171900000000001  0.7883200000000000  6.3519600000000001
  1.0733800000000000  3.2121300000000002  7.6816500000000003
  1.0673500000000000  0.7883200000000000  6.3519600000000001
  8.7327300000000001  1.6936500000000001  7.6245799999999999
  8.7166599999999992  4.0895599999999996  6.3889100000000001
  2.4422700000000002  1.6342699999999999  2.1230000000000002
  2.4422700000000002  4.0857000000000001  0.7076600000000000
  7.3268000000000004  3.2685900000000001  2.1230000000000002
  7.3268000000000004  0.8171600000000000  0.7076600000000000
  2.4422700000000002  1.6548799999999999  4.9252500000000001
  2.4422700000000002  4.0857000000000001  3.5383200000000001
  7.3268000000000004  3.2440000000000002  4.9413900000000002
  7.3268000000000004  0.8171600000000000  3.5383200000000001
  2.4422700000000002  1.7439400000000000  7.6776400000000002
  2.4422700000000002  4.0883300000000000  6.3366400000000001
  7.3268000000000004  3.0932300000000001  7.7346300000000001
  7.3268000000000004  0.7656300000000000  6.3783300000000001
  2.4422700000000002  3.8875199999999999  8.7900100000000005
