Co  N  H 
 1.0000000000000000
     4.5225900000000001    0.0000000000000000    0.0000000000000000
     0.0000000000000000    5.1302700000000003    0.0000000000000000
     0.0000000000000000    0.0000000000000000   28.2963999999999984
 Co  N   H  
  16   8   1
Cartesian
  0.7970600000000000  5.0468999999999999  4.1748500000000002
  0.7970600000000000  1.4720299999999999  1.8169100000000000
  3.7255300000000000  3.1126399999999999  2.8992499999999999
  3.7255300000000000  4.6680299999999999  0.5410300000000000
  3.0583600000000000  2.1029000000000000  0.5410300000000000
  3.0583600000000000  0.5475000000000000  2.8992499999999999
  1.4642299999999999  2.4817700000000000  4.1748500000000002
  1.4642299999999999  4.0371600000000001  1.8169100000000000
  0.7866000000000000  1.9575899999999999  8.6673399999999994
  0.7662300000000000  3.4689800000000002  6.4868499999999996
  3.7237499999999999  0.0342900000000000  7.6368799999999997
  3.7417600000000002  1.5569299999999999  5.2667799999999998
  3.0535399999999999  4.1159600000000003  5.2567800000000000
  3.0501800000000001  2.5976100000000000  7.6318299999999999
  1.4671200000000000  4.5126299999999997  8.6408600000000000
  1.5112399999999999  0.8936900000000000  6.4955299999999996
  2.2612999999999999  4.0797999999999996  3.5370499999999998
  2.2612999999999999  0.5048700000000000  1.1791100000000001
  0.0000000000000000  3.0699999999999998  1.1791100000000001
  0.0000000000000000  1.5146599999999999  3.5370499999999998
  2.2617099999999999  0.9797800000000000  8.2699300000000004
  2.2570899999999998  2.5135200000000002  5.8928399999999996
  0.0019100000000000  5.0854699999999999  5.8935800000000000
  4.5085199999999999  3.5510100000000002  8.2700300000000002
  0.8266300000000000  1.9399000000000000 10.1447000000000003
