Tc  N Tc  N Tc  N Tc  N Tc  N Tc  N Tc  N Tc  N  H 
 1.0000000000000000
     5.6613199999999999    0.0000000000000000    0.0000000000000000
     0.0000000000000000    9.7690699999999993    0.0000000000000000
     0.0000000000000000    0.0000000000000000   29.4171000000000014
 Tc  N   Tc  N   Tc  N   Tc  N   Tc  N   Tc  N   Tc  N   Tc  N   H  
   4   2   4   2   4   2   4   2   4   2   4   2   4   2   4   2   1
Cartesian
  2.1229950000000000  3.8314292539999997  2.0427234240000001
  2.1229950000000000  5.9376407459999996  0.4086035190000001
  2.1229950000000000  8.7159642539999993  0.4086035190000001
  2.1229950000000000  1.0531057460000000  2.0427234240000001
  2.1229950000000000  7.3268024999999994  2.0427234240000001
  2.1229950000000000  2.4422674999999998  0.4086035190000001
  0.7076650000000000  3.8314292539999997  4.4943445380000000
  0.7076650000000000  5.9376407459999996  2.8599304620000008
  0.7076650000000000  8.7159642539999993  2.8599304620000008
  0.7076650000000000  1.0531057460000000  4.4943445380000000
  0.7076650000000000  7.3268024999999994  4.4943445380000000
  0.7076650000000000  2.4422674999999998  2.8599304620000008
  2.1229950000000000  3.8544238064319178  6.9187982122059228
  2.1229950000000000  5.9391715820295374  5.3200453404820163
  2.1229950000000000  8.7171274909701300  5.3192851106640360
  2.1229950000000000  1.0249810295279997  6.9406517760916993
  2.1229950000000000  7.3273653777763483  6.9292701611599359
  2.1229950000000000  2.4374941850457699  5.3332438736072056
  0.6622612633109561  3.6892549088744810  9.2833377143465405
  0.7096166630506616  5.9835603789912675  7.8120654595760577
  0.7025273595898049  8.6783157308362036  7.7879323831408716
  0.6264880601233626  1.2639356974292439  9.3290009859866778
  0.7043878952281590  7.3420197395449698  9.1440684422955840
  0.7167111943474642  2.4540558160467230  7.7127326405685661
  4.9536549999999995  3.8314292539999997  2.0427234240000001
  4.9536549999999995  5.9376407459999996  0.4086035190000001
  4.9536549999999995  8.7159642539999993  0.4086035190000001
  4.9536549999999995  1.0531057460000000  2.0427234240000001
  4.9536549999999995  7.3268024999999994  2.0427234240000001
  4.9536549999999995  2.4422674999999998  0.4086035190000001
  3.5383249999999999  3.8314292539999997  4.4943445380000000
  3.5383249999999999  5.9376407459999996  2.8599304620000008
  3.5383249999999999  8.7159642539999993  2.8599304620000008
  3.5383249999999999  1.0531057460000000  4.4943445380000000
  3.5383249999999999  7.3268024999999994  4.4943445380000000
  3.5383249999999999  2.4422674999999998  2.8599304620000008
  4.9536549999999995  3.8582602805141937  6.9175633381754311
  4.9536549999999995  5.9375007102244615  5.3187997895453991
  4.9536549999999995  8.7214096895925852  5.3232949184289122
  4.9536549999999995  1.0452201569821182  6.9394393930235170
  4.9536549999999995  7.3312896595318078  6.9249119730065418
  4.9536549999999995  2.4360871297698354  5.3266545892766830
  3.5837287366890309  3.6892549088744815  9.2833377143465405
  3.5363733369493238  5.9835603789912675  7.8120654595760568
  3.5434626404101985  8.6783157308362036  7.7879323831408716
  3.6195019398766388  1.2639356974292473  9.3290009859866778
  3.5416021047718491  7.3420197395449698  9.1440684422955840
  3.5292788056525395  2.4540558160467230  7.7127326405685661
  2.1229950000000000  0.8286226920170363 10.3561809858094822
