Tc  N Tc  N Tc  N Tc  N Tc  N Tc  N Tc  N Tc  N  H 
 1.0000000000000000
     5.6613199999999999    0.0000000000000000    0.0000000000000000
     0.0000000000000000    9.7690699999999993    0.0000000000000000
     0.0000000000000000    0.0000000000000000   29.4171000000000014
 Tc  N   Tc  N   Tc  N   Tc  N   Tc  N   Tc  N   Tc  N   Tc  N   H  
   4   2   4   2   4   2   4   2   4   2   4   2   4   2   4   2   1
Cartesian
  2.1229950000000000  3.8314292539999997  2.0427234240000001
  2.1229950000000000  5.9376407459999996  0.4086035190000001
  2.1229950000000000  8.7159642539999993  0.4086035190000001
  2.1229950000000000  1.0531057460000000  2.0427234240000001
  2.1229950000000000  7.3268024999999994  2.0427234240000001
  2.1229950000000000  2.4422674999999998  0.4086035190000001
  0.7076650000000000  3.8314292539999997  4.4943445380000000
  0.7076650000000000  5.9376407459999996  2.8599304620000008
  0.7076650000000000  8.7159642539999993  2.8599304620000008
  0.7076650000000000  1.0531057460000000  4.4943445380000000
  0.7076650000000000  7.3268024999999994  4.4943445380000000
  0.7076650000000000  2.4422674999999998  2.8599304620000008
  2.1187550760027936  3.8716555795047998  6.9312160643042855
  2.1215998622818342  5.9450079533061713  5.3206847386942808
  2.1232970422303050  8.7230598989811341  5.3205280244468964
  2.1199140985917233  1.0384301693541174  6.9337858646080051
  2.1249029576178109  7.3404821033440166  6.9296306856520866
  2.1214480468340389  2.4506049260956488  5.3381540208164040
  0.7076650000000000  3.6773955683086306  9.3092152326106490
  0.7076650000000000  5.9971762298369464  7.8060313093022868
  0.7076650000000000  8.6842784592895210  7.8065605915812952
  0.7076650000000000  1.2200748111434065  9.3043242411699918
  0.7076650000000000  7.3404054116177999  9.1480979955114208
  0.7076650000000000  2.4557280065589504  7.7532367946672700
  4.9536549999999995  3.8314292539999997  2.0427234240000001
  4.9536549999999995  5.9376407459999996  0.4086035190000001
  4.9536549999999995  8.7159642539999993  0.4086035190000001
  4.9536549999999995  1.0531057460000000  2.0427234240000001
  4.9536549999999995  7.3268024999999994  2.0427234240000001
  4.9536549999999995  2.4422674999999998  0.4086035190000001
  3.5383249999999999  3.8314292539999997  4.4943445380000000
  3.5383249999999999  5.9376407459999996  2.8599304620000008
  3.5383249999999999  8.7159642539999993  2.8599304620000008
  3.5383249999999999  1.0531057460000000  4.4943445380000000
  3.5383249999999999  7.3268024999999994  4.4943445380000000
  3.5383249999999999  2.4422674999999998  2.8599304620000008
  4.9578949239971779  3.8716555795047918  6.9312160643042855
  4.9550501377180485  5.9450079533061713  5.3206847386942808
  4.9533529577696136  8.7230598989811341  5.3205280244468964
  4.9567359014083126  1.0384301693541109  6.9337858646080051
  4.9517470423822072  7.3404821033440166  6.9296306856520866
  4.9552019531659095  2.4506049260956488  5.3381540208164040
  3.5383249999999999  3.6822841973716489  9.2762554796354628
  3.5383249999999999  5.9887659669454116  7.8090277022869969
  3.5383249999999999  8.6936262878624770  7.8138407752226993
  3.5383249999999999  1.2602704557102880  9.2809012467095595
  3.5383249999999999  7.3480848575255475  9.1506617581008225
  3.5383249999999999  2.4623798830273960  7.6992139176362002
  0.7076650000000000  2.4470164058373043 10.7136195191147809
