Tc  N  H 
 1.0000000000000000
     5.6613199999999999    0.0000000000000000    0.0000000000000000
     0.0000000000000000    9.7690699999999993    0.0000000000000000
     0.0000000000000000    0.0000000000000000   29.4171000000000014
 Tc  N   H  
  32  16   1
Cartesian
  2.1229900000000002  3.8314300000000001  2.0427200000000001
  2.1229900000000002  5.9376400000000000  0.4086000000000000
  2.1229900000000002  8.7159600000000008  0.4086000000000000
  2.1229900000000002  1.0531100000000000  2.0427200000000001
  0.7076600000000000  3.8314300000000001  4.4943400000000002
  0.7076600000000000  5.9376400000000000  2.8599299999999999
  0.7076600000000000  8.7159600000000008  2.8599299999999999
  0.7076600000000000  1.0531100000000000  4.4943400000000002
  2.1535799999999998  3.8666600000000000  6.9048900000000000
  2.1168600000000000  5.9381899999999996  5.3086399999999996
  2.1258800000000000  8.7174800000000001  5.3284300000000000
  2.1228099999999999  1.0561600000000000  6.9624300000000003
  0.7076600000000000  3.4889600000000001  9.2642600000000002
  0.7076600000000000  5.9938799999999999  7.8031400000000000
  0.7076600000000000  8.6939299999999999  7.8208900000000003
  0.7076600000000000  1.1383200000000000  9.3771299999999993
  4.9536499999999997  3.8314300000000001  2.0427200000000001
  4.9536499999999997  5.9376400000000000  0.4086000000000000
  4.9536499999999997  8.7159600000000008  0.4086000000000000
  4.9536499999999997  1.0531100000000000  2.0427200000000001
  3.5383200000000001  3.8314300000000001  4.4943400000000002
  3.5383200000000001  5.9376400000000000  2.8599299999999999
  3.5383200000000001  8.7159600000000008  2.8599299999999999
  3.5383200000000001  1.0531100000000000  4.4943400000000002
  4.9230700000000001  3.8666600000000000  6.9048900000000000
  4.9597899999999999  5.9381899999999996  5.3086399999999996
  4.9507700000000003  8.7174800000000001  5.3284300000000000
  4.9538399999999996  1.0561600000000000  6.9624300000000003
  3.5383200000000001  3.8156200000000000  9.1540700000000008
  3.5383200000000001  5.9553799999999999  7.7447699999999999
  3.5383200000000001  8.6481600000000007  7.9089700000000001
  3.5383200000000001  0.8187600000000000  9.3344000000000005
  2.1229900000000002  7.3268000000000004  2.0427200000000001
  2.1229900000000002  2.4422700000000002  0.4086000000000000
  0.7076600000000000  7.3268000000000004  4.4943400000000002
  0.7076600000000000  2.4422700000000002  2.8599299999999999
  2.1210499999999999  7.3325300000000002  6.9251699999999996
  2.1326600000000000  2.4423800000000000  5.3404100000000003
  0.7076600000000000  7.2552199999999996  9.1506699999999999
  0.7076600000000000  2.5324100000000000  7.5920100000000001
  4.9536499999999997  7.3268000000000004  2.0427200000000001
  4.9536499999999997  2.4422700000000002  0.4086000000000000
  3.5383200000000001  7.3268000000000004  4.4943400000000002
  3.5383200000000001  2.4422700000000002  2.8599299999999999
  4.9555999999999996  7.3325300000000002  6.9251699999999996
  4.9439900000000003  2.4423800000000000  5.3404100000000003
  3.5383200000000001  7.2718100000000003  9.1811399999999992
  3.5383200000000001  2.2048600000000000  8.0245599999999992
  0.7076600000000000  0.2781100000000000 10.8183900000000008
