 W Ni  W Ni  W Ni  H 
 1.0000000000000000
     5.5270646088667679    0.0000000000000000    0.0000000000000000
    -2.7635318044334189    4.7865776612687343    0.0000000000000000
     0.0000000000000000    0.0000000000000000   24.5128272653031836
 W   Ni  W   Ni  W   Ni  H  
   3   1   3   1   3   1   1
Cartesian
  0.0000000000000000  0.0000000000000000  9.9999992923310419
 -1.3817661022166952  2.3932890306343526  9.9999992923310419
  1.3817661022166952  2.3932890306343526  9.9999992923310419
  0.0000000000000000  4.7865780612687052  9.9999992923310419
  2.7635321044333976  1.5955259870895708 12.2564138326515781
  1.3817661022166952  3.9888150177239234 12.2564138326515781
 -1.3817661022166952  3.9888150177239234 12.2564138326515781
  0.0000000000000000  1.5955259870895708 12.2564138326515781
  0.0001482999895053  3.1598446763875851 14.4456190777283062
  1.3537414041999163  0.8137040424166868 14.4402600781075492
  4.1735283046523364  0.8137384424142524 14.4402658781071356
  2.7636878044223794  3.1905586742140510 14.4560280769916947
  2.7635819044298735  0.0026601998117459 15.6187203947115627
