Ti  N  H 
 1.0000000000000000
    10.6223399999999994    0.0000000000000000    0.0000000000000000
    -7.3988763640000004    7.6217278630000003    0.0000000000000000
     0.0000000000000000    0.0000000000000000   29.9953000000000003
 Ti  N   H  
  32  16   1
Cartesian
  4.1694399999999998  0.4828700000000000  2.2754400000000001
  1.5139199999999999  1.6059699999999999  3.2128000000000001
  0.7387400000000000  1.9338200000000001  0.5366200000000000
 -1.9168700000000001  3.0569600000000001  1.4739700000000000
  2.6583000000000001  1.1259999999999999  5.8301200000000000
 -0.2645700000000000  2.2541300000000000  6.8337700000000003
 -0.8784200000000000  2.5755599999999998  4.2410899999999998
 -3.5239699999999998  3.7379899999999999  5.1789699999999996
  0.4700000000000000  4.2937399999999997  2.2754400000000001
 -2.1855199999999999  5.4168399999999997  3.2128000000000001
 -2.9607000000000001  5.7446900000000003  0.5366200000000000
 -5.6163100000000004  6.8678200000000000  1.4739700000000000
 -1.0227500000000000  4.9250699999999998  5.7648599999999997
 -3.8820600000000001  6.1343600000000000  6.8111499999999996
 -4.5756899999999998  6.4277199999999999  4.2406199999999998
 -7.2100499999999998  7.5418700000000003  5.2032400000000001
  9.4806100000000004  0.4828700000000000  2.2754400000000001
  6.8250900000000003  1.6059699999999999  3.2128000000000001
  6.0499099999999997  1.9338200000000001  0.5366200000000000
  3.3942999999999999  3.0569600000000001  1.4739700000000000
  7.8814599999999997  1.1592000000000000  5.9937100000000001
  5.1727299999999996  2.3048099999999998  6.8490700000000002
  4.4325900000000003  2.6178400000000002  4.2511999999999999
  1.7952300000000001  3.7332600000000000  5.2384300000000001
  5.7811700000000004  4.2937399999999997  2.2754400000000001
  3.1256499999999998  5.4168399999999997  3.2128000000000001
  2.3504700000000001  5.7446900000000003  0.5366200000000000
 -0.3051400000000000  6.8678200000000000  1.4739700000000000
  4.2671500000000000  4.9300499999999996  5.8301200000000000
  1.4218000000000000  6.2414699999999996  6.8337700000000003
  0.7635999999999999  6.4580299999999999  4.2410899999999998
 -1.9131899999999999  7.5465900000000001  5.1789699999999996
  2.4540899999999999  1.2083500000000000  1.4061800000000000
 -0.2015200000000000  2.3314900000000001  2.3432300000000001
  0.8466200000000000  1.8873899999999999  5.1796899999999999
 -1.8530599999999999  3.0504300000000000  6.0879099999999999
 -1.2453500000000000  5.0192100000000002  1.4061800000000000
 -3.9009600000000000  6.1423500000000004  2.3432300000000001
 -2.8420700000000001  5.6945100000000002  5.1512900000000004
 -5.5513599999999999  6.8403499999999999  6.1608999999999998
  7.7652599999999996  1.2083500000000000  1.4061800000000000
  5.1096500000000002  2.3314900000000001  2.3432300000000001
  6.1574499999999999  1.8883399999999999  5.1529900000000000
  3.4806200000000000  3.0204499999999999  6.1750400000000001
  4.0658200000000004  5.0192100000000002  1.4061800000000000
  1.4102100000000000  6.1423500000000004  2.3432300000000001
  2.4589300000000001  5.6996200000000004  5.1796899999999999
 -0.2560100000000000  6.8265900000000004  6.0879099999999999
  7.8378600000000000  1.1776400000000000  7.8346600000000004
