Ag Co Ag Co Ag Co  H 
 1.0000000000000000
     5.7087785960074315    0.0000000000000000    0.0000000000000000
    -2.8543887980037508    4.9439476501321469    0.0000000000000000
     0.0000000000000000    0.0000000000000000   24.6611962548035706
 Ag  Co  Ag  Co  Ag  Co  H  
   3   1   3   1   3   1   1
Cartesian
  0.0000000000000000  0.0000000000000000  9.9999992923310419
 -1.4271945990018615  2.4719736250660880  9.9999992923310419
  1.4271945990018615  2.4719736250660880  9.9999992923310419
  2.8543892980037158  0.0000000000000000  9.9999992923310419
  2.8543892980037158  1.6479823833773941 12.3305983274017716
  1.4271945990018615  4.1199560084434816 12.3305983274017716
 -1.4271945990018615  4.1199560084434816 12.3305983274017716
  0.0000000000000000  1.6479823833773941 12.3305983274017716
 -0.0000000999999929  3.2998662664786913 14.7857670536570893
  1.4305729987627824  0.8220406418267314 14.7857672536570757
  4.2782046972447123  0.8220404418267455 14.7857675536570543
  2.8543892980037158  3.2959650667547673 14.5250554721068408
 -0.0000001999999858  1.6479823833773941 15.7647183843797372
