Ir Ga Ir Ga Ir Ga  H 
 1.0000000000000000
     5.4981506109129210    0.0000000000000000    0.0000000000000000
    -2.7490748054564960    4.7615376630407367    0.0000000000000000
     0.0000000000000000    0.0000000000000000   24.4892192669738513
 Ir  Ga  Ir  Ga  Ir  Ga  H  
   3   1   3   1   3   1   1
Cartesian
  0.0000000000000000  0.0000000000000000  9.9999992305287044
 -1.3745374027282480  2.3807688315203683  9.9999992305287044
  1.3745379027282125  2.3807688315203683  9.9999992305287044
  2.7490753054564605  0.0000000000000000  9.9999992305287044
  2.7490754748721904  1.5871792194263996 12.2446096334869257
  1.3745380721439422  3.9679480509467679 12.2446096334869257
 -1.3745372333125183  3.9679480509467679 12.2446096334869257
  0.0000001694157299  1.5871792194263996 12.2446096334869257
 -0.0048596036266289  3.1941039308261461 14.4064485079279745
  1.3896324293092617  0.7848716699328684 14.4055834997250276
  4.1041016026562538  0.7879740831279862 14.4064113332931267
  2.7357411316251703  3.1821174168516384 14.5565549815111375
  0.0073241207086195  1.5830727026919753 15.3935498440936005
