Cr  N  H 
 1.0000000000000000
     7.5772800000000000    0.0000000000000000    0.0000000000000000
     0.0000000000000000    5.4626999999999999    0.0000000000000000
     0.0000000000000000    0.0000000000000000   39.3727000000000018
 Cr  N   H  
  24  32   1
Cartesian
  2.9693100000000001  2.0485099999999998  3.4447199999999998
  3.1094100000000000  2.0485099999999998  0.8492700000000000
  5.2872000000000003  2.0485099999999998  2.2682600000000002
  0.8193300000000000  0.6828400000000000  3.1175299999999999
  0.6792300000000000  0.6828400000000000  5.7129799999999999
  6.0787199999999997  0.6828400000000000  4.2939900000000000
  6.7396799999999999  2.0477099999999999 10.0093700000000005
  6.8995199999999999  2.0506300000000000  7.4142200000000003
  1.4487800000000000  2.0619399999999999  8.8318800000000000
  4.6107699999999996  0.6828400000000000  9.6474700000000002
  4.2053200000000004  0.6828400000000000 12.2115299999999998
  2.2006700000000001  0.6828400000000000 10.8251600000000003
  2.9693100000000001  4.7798600000000002  3.4447199999999998
  3.1094100000000000  4.7798600000000002  0.8492700000000000
  5.2872000000000003  4.7798600000000002  2.2682600000000002
  0.8193300000000000  3.4141900000000001  3.1175299999999999
  0.6792300000000000  3.4141900000000001  5.7129799999999999
  6.0787199999999997  3.4141900000000001  4.2939900000000000
  6.7396799999999999  4.7806600000000001 10.0093700000000005
  6.8995199999999999  4.7777399999999997  7.4142200000000003
  1.4487800000000000  4.7664299999999997  8.8318800000000000
  4.6180099999999999  3.4141900000000001  9.6641100000000009
  4.2532899999999998  3.4141900000000001 12.1949299999999994
  2.2509100000000002  3.4141900000000001 10.8649699999999996
  4.7676200000000000  2.0485099999999998  4.2168200000000002
  1.5417500000000000  2.0485099999999998  2.0206100000000000
  5.0565499999999997  2.0485099999999998  0.3248200000000000
  6.5983000000000001  0.6828400000000000  2.3454299999999999
  2.2468900000000001  0.6828400000000000  4.5416400000000001
  6.3093700000000004  0.6828400000000000  6.2370299999999999
  0.0000000000000000  2.0485099999999998  4.3746999999999998
  3.7886400000000000  0.6828400000000000  2.1875499999999999
  0.9466599999999999  2.0513200000000000 10.8224000000000000
  5.3091799999999996  2.0467599999999999  8.5725700000000007
  1.2704000000000000  2.0465900000000001  6.8971400000000003
  2.7837100000000001  0.6828400000000000  8.9799600000000002
  6.0092100000000004  0.6828400000000000 11.0770800000000005
  2.6740499999999998  0.6828400000000000 12.8138199999999998
  3.7825000000000002  2.0538200000000000 10.9780300000000004
 -0.0124300000000000  0.6828400000000000  8.7473700000000001
  4.7676200000000000  4.7798600000000002  4.2168200000000002
  1.5417500000000000  4.7798600000000002  2.0206100000000000
  5.0565499999999997  4.7798600000000002  0.3248200000000000
  6.5983000000000001  3.4141900000000001  2.3454299999999999
  2.2468900000000001  3.4141900000000001  4.5416400000000001
  6.3093700000000004  3.4141900000000001  6.2370299999999999
  0.0000000000000000  4.7798600000000002  4.3746999999999998
  3.7886400000000000  3.4141900000000001  2.1875499999999999
  0.9466599999999999  4.7770599999999996 10.8224000000000000
  5.3091799999999996  4.7816200000000002  8.5725700000000007
  1.2704000000000000  4.7817800000000004  6.8971400000000003
  2.7936200000000002  3.4141900000000001  8.9702599999999997
  6.0336999999999996  3.4141900000000001 11.1149000000000004
  2.7637800000000001  3.4141900000000001 12.8985199999999995
  3.7825000000000002  4.7745600000000001 10.9780300000000004
 -0.0181300000000000  3.4141900000000001  8.7494800000000001
  5.0586000000000002  0.6828400000000000 13.5846400000000003
