Cr  N  H 
 1.0000000000000000
     5.4626999999999999    0.0000000000000000    0.0000000000000000
     0.0000000000000000   13.1242000000000001    0.0000000000000000
     0.0000000000000000    0.0000000000000000   37.8864000000000019
 Cr  N   H  
  48  64   1
Cartesian
  0.6828400000000000  5.7129599999999998  6.5585100000000001
  0.6828400000000000 12.2750599999999999  2.7698700000000001
  0.6828400000000000  4.2938400000000003  1.1589400000000001
  0.6828400000000000 10.8559400000000004  4.9475800000000003
  0.6828400000000000  3.1173899999999999  6.4183399999999997
  0.6828400000000000  9.6794899999999995  2.6297000000000001
  2.0485099999999998  7.4112400000000003  0.3394600000000000
  2.0485099999999998  0.8491400000000000  4.1280999999999999
  2.0485099999999998  8.8303600000000007  5.7390299999999996
  2.0485099999999998  2.2682600000000002  1.9503900000000001
  2.0485099999999998 10.0068099999999998  0.4796400000000000
  2.0485099999999998  3.4447100000000002  4.2682799999999999
  0.6292700000000000  5.7313900000000002 13.8817699999999995
  0.6779300000000000 12.2739799999999999 10.3420699999999997
  0.6792100000000000  4.2952399999999997  8.6924600000000005
  0.6749400000000000 10.8603400000000008 12.6423900000000007
  0.5811200000000000  3.2791399999999999 13.8297699999999999
  0.6764100000000000  9.6308100000000003 10.3153900000000007
  2.0474199999999998  7.4240500000000003  7.9316300000000002
  2.0371600000000001  0.8946400000000000 11.7367799999999995
  2.0560299999999998  8.8130600000000001 13.7780100000000001
  2.0407299999999999  2.2515600000000000  9.4895300000000002
  2.0455500000000000  9.9933700000000005  8.0492399999999993
  2.0364700000000000  3.4024700000000001 11.7398500000000006
  3.4141900000000001  5.7129599999999998  6.5585100000000001
  3.4141900000000001 12.2750599999999999  2.7698700000000001
  3.4141900000000001  4.2938400000000003  1.1589400000000001
  3.4141900000000001 10.8559400000000004  4.9475800000000003
  3.4141900000000001  3.1173899999999999  6.4183399999999997
  3.4141900000000001  9.6794899999999995  2.6297000000000001
  4.7798600000000002  7.4112400000000003  0.3394600000000000
  4.7798600000000002  0.8491400000000000  4.1280999999999999
  4.7798600000000002  8.8303600000000007  5.7390299999999996
  4.7798600000000002  2.2682600000000002  1.9503900000000001
  4.7798600000000002 10.0068099999999998  0.4796400000000000
  4.7798600000000002  3.4447100000000002  4.2682799999999999
  3.4378600000000001  5.7407100000000000 13.8703599999999998
  3.3991899999999999 12.2742100000000001 10.3407000000000000
  3.4083100000000002  4.2955800000000002  8.6925699999999999
  3.4035299999999999 10.8648799999999994 12.6565999999999992
  3.4896400000000001  3.2850899999999998 13.8266700000000000
  3.4080499999999998  9.6331600000000002 10.3137699999999999
  4.7785900000000003  7.4245400000000004  7.9313900000000004
  4.7678599999999998  0.8565300000000000 11.6883599999999994
  4.7873700000000001  8.8394399999999997 13.7705699999999993
  4.7720000000000002  2.2388599999999999  9.4716299999999993
  4.7777500000000002  9.9936399999999992  8.0501500000000004
  4.7679700000000000  3.4007200000000002 11.7235300000000002
  0.6828400000000000  4.5416299999999996  4.9907800000000000
  0.6828400000000000 11.1037300000000005  1.2021400000000000
  0.6828400000000000  6.2371400000000001  0.9282200000000000
  0.6828400000000000 12.7992399999999993  4.7168599999999996
  0.6828400000000000  2.3454299999999999  0.6395200000000000
  0.6828400000000000  8.9075299999999995  4.4281600000000001
  2.0485099999999998  8.5825700000000005  1.9072000000000000
  2.0485099999999998  2.0204700000000000  5.6958399999999996
  2.0485099999999998  6.8870600000000000  5.9697600000000000
  2.0485099999999998  0.3249600000000000  2.1811199999999999
  2.0485099999999998 10.7787699999999997  6.2588299999999997
  2.0485099999999998  4.2166699999999997  2.4701900000000001
  0.6828400000000000  8.7495100000000008  7.2378200000000001
  0.6828400000000000  2.1874099999999999  3.4491800000000001
  2.0485099999999998  4.3746900000000002  7.2378200000000001
  2.0485099999999998 10.9367900000000002  3.4491800000000001
  0.6692300000000000  4.5750999999999999 12.4628099999999993
  0.6776700000000000 11.0523900000000008  8.8346800000000005
  0.6820300000000000  6.2340900000000001  8.4991699999999994
  0.6714599999999999 12.8394200000000005 12.2717899999999993
  0.6760699999999999  2.3201800000000001  8.1835100000000001
  0.6694200000000000  9.0378500000000006 12.1832300000000000
  2.0438100000000001  8.5635300000000001  9.5297599999999996
  2.0352600000000001  2.1223299999999998 13.3271300000000004
  2.0334500000000002  6.8451100000000000 13.5743799999999997
  2.0388400000000000  0.3110300000000000  9.7610499999999991
  2.0374699999999999 10.8810400000000005 13.7803599999999999
  2.0427700000000000  4.1978000000000000 10.0050500000000007
  0.6750500000000000  8.7207899999999992 14.8520199999999996
  0.6734300000000000  2.1824900000000000 10.9901800000000005
  2.0369799999999998  4.4066799999999997 14.7793100000000006
  2.0403699999999998 10.9381500000000003 11.0503699999999991
  3.4141900000000001  4.5416299999999996  4.9907800000000000
  3.4141900000000001 11.1037300000000005  1.2021400000000000
  3.4141900000000001  6.2371400000000001  0.9282200000000000
  3.4141900000000001 12.7992399999999993  4.7168599999999996
  3.4141900000000001  2.3454299999999999  0.6395200000000000
  3.4141900000000001  8.9075299999999995  4.4281600000000001
  4.7798600000000002  8.5825700000000005  1.9072000000000000
  4.7798600000000002  2.0204700000000000  5.6958399999999996
  4.7798600000000002  6.8870600000000000  5.9697600000000000
  4.7798600000000002  0.3249600000000000  2.1811199999999999
  4.7798600000000002 10.7787699999999997  6.2588299999999997
  4.7798600000000002  4.2166699999999997  2.4701900000000001
  3.4141900000000001  8.7495100000000008  7.2378200000000001
  3.4141900000000001  2.1874099999999999  3.4491800000000001
  4.7798600000000002  4.3746900000000002  7.2378200000000001
  4.7798600000000002 10.9367900000000002  3.4491800000000001
  3.4021599999999999  4.5786199999999999 12.4564100000000000
  3.4117799999999998 11.0524900000000006  8.8347400000000000
  3.4123500000000000  6.2340999999999998  8.4992400000000004
  3.4023099999999999 12.8370800000000003 12.2713099999999997
  3.4066900000000002  2.3203000000000000  8.1836300000000008
  3.3986700000000001  9.0440299999999993 12.1854999999999993
  4.7744600000000004  8.5629299999999997  9.5302000000000007
  4.7655900000000004  2.0577999999999999 13.2457799999999999
  4.7673800000000002  6.8936599999999997 13.5089699999999997
  4.7704100000000000  0.3038800000000000  9.7395700000000005
  4.7722699999999998 10.8944399999999995 13.7793799999999997
  4.7744600000000004  4.1937499999999996  9.9965299999999999
  3.4079600000000001  8.7172400000000003 14.8520900000000005
  3.4019200000000001  2.1822499999999998 10.9901199999999992
  4.7637700000000001  4.4134300000000000 14.7169000000000008
  4.7718900000000000 10.9364600000000003 11.0525400000000005
  2.0556299999999998  4.3784299999999998 15.8039699999999996
