Ru Zn Ru Zn Ru Zn  H 
 1.0000000000000000
     5.4191116165062656    0.0000000000000000    0.0000000000000000
    -2.7095558082531328    4.6930886678846591    0.0000000000000000
     0.0000000000000000    0.0000000000000000   24.4246852715407208
 Ru  Zn  Ru  Zn  Ru  Zn  H  
   3   1   3   1   3   1   1
Cartesian
  0.0000000000000000  0.0000000000000000  9.9999992923310419
 -1.3547780041265596  2.3465443339423295  9.9999992923310419
  1.3547780041265596  2.3465443339423295  9.9999992923310419
  2.7095560082531192  0.0000000000000000  9.9999992923310419
  2.7095560082531192  1.5643628892948866 12.2123425357703681
  1.3547780041265596  3.9109073232372094 12.2123425357703681
 -1.3547780041265596  3.9109073232372094 12.2123425357703681
  0.0000000000000000  1.5643628892948866 12.2123425357703681
 -0.0031112997798230  3.1543693767750551 14.3214991865118861
  1.3774449025224933  0.7692152455650211 14.3217658864930151
  4.0408001140450995  0.7724189453383051 14.3218007864905434
  2.7080273083613000  3.1300581784954833 14.4917935744606829
  2.7103603081962011  3.1295696785300531 16.0761672623394674
