Co  N  H 
 1.0000000000000000
     7.4305599999999998    0.0000000000000000    0.0000000000000000
     0.0000000000000000    5.2542000000000000    0.0000000000000000
     0.0000000000000000    0.0000000000000000   31.5252000000000017
 Co  N   H  
  32   8   1
Cartesian
  0.0000000000000000  3.9406500000000002  0.6566700000000000
  0.0000000000000000  1.3135500000000000  3.2839800000000001
  0.0000000000000000  1.3135500000000000  0.6566700000000000
  0.0000000000000000  3.9406500000000002  3.2839800000000001
  1.8576400000000000  2.6271000000000000  1.9703299999999999
  1.8576400000000000  0.0000000000000000  4.5973199999999999
  1.8576400000000000  2.6271000000000000  4.5973199999999999
  1.8576400000000000  0.0000000000000000  1.9703299999999999
  0.0000000000000000  3.9287999999999998  5.9159199999999998
  0.0000000000000000  1.3098799999999999  8.6434700000000007
  0.0000000000000000  1.3253999999999999  5.9159199999999998
  0.0000000000000000  3.9443199999999998  8.6434700000000007
  1.8530000000000000  2.6271000000000000  7.1236699999999997
  1.9002699999999999  0.0000000000000000  9.6321399999999997
  1.9026500000000000  2.6271000000000000  9.5448000000000004
  1.8177700000000001  0.0000000000000000  7.2142799999999996
  3.7152799999999999  3.9406500000000002  0.6566700000000000
  3.7152799999999999  1.3135500000000000  3.2839800000000001
  3.7152799999999999  1.3135500000000000  0.6566700000000000
  3.7152799999999999  3.9406500000000002  3.2839800000000001
  5.5729199999999999  2.6271000000000000  1.9703299999999999
  5.5729199999999999  0.0000000000000000  4.5973199999999999
  5.5729199999999999  2.6271000000000000  4.5973199999999999
  5.5729199999999999  0.0000000000000000  1.9703299999999999
  3.7152799999999999  3.9515899999999999  5.9057300000000001
  3.7152799999999999  1.2694000000000001  8.5051500000000004
  3.7152799999999999  1.3026100000000000  5.9057300000000001
  3.7152799999999999  3.9847999999999999  8.5051500000000004
  5.5775600000000001  2.6271000000000000  7.1236699999999997
  5.5302899999999999  0.0000000000000000  9.6321399999999997
  5.5279100000000003  2.6271000000000000  9.5448000000000004
  5.6127900000000004  0.0000000000000000  7.2142799999999996
  0.0000000000000000  2.6271000000000000  1.9703299999999999
  0.0000000000000000  0.0000000000000000  4.5973199999999999
  0.0000000000000000  2.6271000000000000  7.2945200000000003
  0.0000000000000000  0.0000000000000000 10.0545299999999997
  3.7152799999999999  2.6271000000000000  1.9703299999999999
  3.7152799999999999  0.0000000000000000  4.5973199999999999
  3.7152799999999999  2.6271000000000000  7.2037699999999996
  3.7152799999999999  0.0000000000000000  9.8887599999999996
  0.0000000000000000  0.0000000000000000 11.0816800000000004
