Pd  N Pd  N Pd  N Pd  N  H 
 1.0000000000000000
     4.5745300000000002    0.0000000000000000    0.0000000000000000
    -3.7083015434813658   10.8911949161978434    0.0000000000000000
     0.0000000000000000    0.0000000000000000   28.4010999999999996
 Pd  N   Pd  N   Pd  N   Pd  N   H  
   2   4   2   4   2   4   2   4   1
Cartesian
  1.1207955999620753  2.2519179168476473  1.0142032809999999
  2.0022429310565677  4.0329550214934802  3.0428938539999999
  3.0579794335853405  2.6186789056506092  3.8259121809999996
  2.1765135609831305  0.8376962569793571  1.7972216080000001
  0.0650776389410204  3.6661395767159370  0.2314689650000000
  2.8006757417761947  0.0015792232628487  2.2601595379999999
  0.0400684379006286  0.2772978922812536  5.0913470299192181
  0.5086922557705540  1.6321327304224460  7.3370718057733448
  0.8150401868468636  0.1793019583621697  8.4124709471326486
 -0.8162232310769922  4.0696861016083590  6.0781811979551881
  3.6258360886788421  1.7372557750350208  4.2688169671359057
 -0.1380089720627067  3.2813370203537273  6.5552255567217301
 -0.7333551717786075  7.6975153749465690  1.0142032809999999
  0.1480921593158848  9.4785524795924019  3.0428938539999999
  1.2038286618446576  8.0642763637495314  3.8259121809999996
  0.3223627892424477  6.2832937150782788  1.7972216080000001
 -1.7890731327996625  9.1117370348148583  0.2314689650000000
  0.9465249700355118  5.4471766813617704  2.2601595379999999
 -2.2737138313052525  5.3251606178899937  5.6818353113906390
 -0.6055808174573385  7.4171506270208969  6.2453857964388755
  0.9432175788945043  6.4431785768233576  6.1588122797863250
 -2.5259006214793187  9.8187864661069817  5.8884684781939853
  2.1752844019638458  7.4794900810476763  3.8280796025368495
 -1.8340412017643679  8.9904932722407587  6.2503454637154796
  1.1120588794814235 10.2050426147785576  8.3868316350474466
