Ag Co Ag Co Ag Co  H 
 1.0000000000000000
     5.7087785960074315    0.0000000000000000    0.0000000000000000
    -2.8543887980037508    4.9439476501321469    0.0000000000000000
     0.0000000000000000    0.0000000000000000   24.6611962548035706
 Ag  Co  Ag  Co  Ag  Co  H  
   3   1   3   1   3   1   1
Cartesian
  0.0000000000000000  0.0000000000000000  9.9999992923310419
 -1.4271945990018615  2.4719736250660880  9.9999992923310419
  1.4271945990018615  2.4719736250660880  9.9999992923310419
  2.8543892980037158  0.0000000000000000  9.9999992923310419
  2.8543892980037158  1.6479823833773941 12.3305983274017716
  1.4271945990018615  4.1199560084434816 12.3305983274017716
 -1.4271945990018615  4.1199560084434816 12.3305983274017716
  0.0000000000000000  1.6479823833773941 12.3305983274017716
  0.0555902960660470  3.2622974691373186 14.7657447550740049
  1.4556960969848987  0.8075360428531769 14.7524325560160694
  4.3385357929752679  0.7926823439043272 14.7657444550740262
  2.8811379961107932  3.2805218678476344 14.5895990675392895
  3.9717826189292533  2.6508376124084378 15.6007800959811433
