Rh Pt Rh Pt Rh Pt  H 
 1.0000000000000000
     5.4945806111655591    0.0000000000000000    0.0000000000000000
    -2.7472908055827441    4.7584466632594777    0.0000000000000000
     0.0000000000000000    0.0000000000000000   24.4863052671800645
 Rh  Pt  Rh  Pt  Rh  Pt  H  
   3   1   3   1   3   1   1
Cartesian
  0.0000000000000000  0.0000000000000000  9.9999994272476727
 -1.3736454027913720  2.3792233316297389  9.9999994272476727
  1.3736449027914075  2.3792233316297389  9.9999994272476727
  2.7472903055827795  0.0000000000000000  9.9999994272476727
  2.7472901416634152  1.5861488861670103 12.2431526335900323
  1.3736447388720432  3.9653722177967494 12.2431526335900323
 -1.3736455667107363  3.9653722177967494 12.2431526335900323
 -0.0000001639193644  1.5861488861670103 12.2431526335900323
  0.0141899858613537  3.1834846425170107 14.4796681657594810
  1.3895857673299967  0.8009097893904915 14.4437643615860143
  4.1095063250162021  0.7756885897827707 14.4325455690469706
  2.7367078318738618  3.1837295692836616 14.5271463281107724
 -1.4424004746350867  3.1638017371208509 15.6223030894056549
