Tc  N  H 
 1.0000000000000000
     5.6613199999999999    0.0000000000000000    0.0000000000000000
     0.0000000000000000    9.7690699999999993    0.0000000000000000
     0.0000000000000000    0.0000000000000000   29.4171000000000014
 Tc  N   H  
  32  16   1
Cartesian
  1.4153300000000000  3.8314300000000001  0.8172100000000000
  0.0000000000000000  5.9376400000000000  1.6344099999999999
  0.0000000000000000  8.7159600000000008  1.6344099999999999
  1.4153300000000000  1.0531100000000000  0.8172100000000000
  0.0000000000000000  3.8314300000000001  3.2685300000000002
  1.4153300000000000  5.9376400000000000  4.0857400000000004
  1.4153300000000000  8.7159600000000008  4.0857400000000004
  0.0000000000000000  1.0531100000000000  3.2685300000000002
  1.3982000000000001  3.8378700000000001  5.7265300000000003
  5.6409799999999999  5.9376600000000002  6.5526299999999997
  5.6409799999999999  8.7159499999999994  6.5526299999999997
  1.3982000000000001  1.0466700000000000  5.7265300000000003
  5.6119000000000003  3.8032800000000000  8.1648599999999991
  1.3910499999999999  5.8761200000000002  8.8395700000000001
  1.3910499999999999  8.7774900000000002  8.8395700000000001
  5.6119000000000003  1.0812500000000000  8.1648599999999991
  4.2459899999999999  3.8314300000000001  0.8172100000000000
  2.8306600000000000  5.9376400000000000  1.6344099999999999
  2.8306600000000000  8.7159600000000008  1.6344099999999999
  4.2459899999999999  1.0531100000000000  0.8172100000000000
  2.8306600000000000  3.8314300000000001  3.2685300000000002
  4.2459899999999999  5.9376400000000000  4.0857400000000004
  4.2459899999999999  8.7159600000000008  4.0857400000000004
  2.8306600000000000  1.0531100000000000  3.2685300000000002
  4.2279700000000000  3.8384999999999998  5.7226299999999997
  2.8062299999999998  5.9377300000000002  6.5534999999999997
  2.8062299999999998  8.7158700000000007  6.5534999999999997
  4.2279700000000000  1.0460300000000000  5.7226299999999997
  2.8259500000000002  3.8043499999999999  8.1673200000000001
  4.2210500000000000  5.8708700000000000  8.8314000000000004
  4.2210500000000000  8.7827400000000004  8.8314000000000004
  2.8259500000000002  1.0801900000000000  8.1673200000000001
  1.4153300000000000  7.3268000000000004  0.8172100000000000
  0.0000000000000000  2.4422700000000002  1.6344099999999999
  0.0000000000000000  7.3268000000000004  3.2685300000000002
  1.4153300000000000  2.4422700000000002  4.0857400000000004
  1.3950899999999999  7.3268000000000004  5.7345300000000003
  5.6435399999999998  2.4422700000000002  6.4930099999999999
  5.6326000000000001  7.3268000000000004  8.3205200000000001
  1.3853300000000000  2.4422700000000002  9.0091500000000000
  4.2459899999999999  7.3268000000000004  0.8172100000000000
  2.8306600000000000  2.4422700000000002  1.6344099999999999
  2.8306600000000000  7.3268000000000004  3.2685300000000002
  4.2459899999999999  2.4422700000000002  4.0857400000000004
  4.2237099999999996  7.3268000000000004  5.7371699999999999
  2.8096299999999998  2.4422700000000002  6.4975199999999997
  2.8062100000000001  7.3268000000000004  8.3167700000000000
  4.2183999999999999  2.4422700000000002  8.9363499999999991
  1.3851199999999999  2.4422700000000002 10.0305400000000002
