Tc  N Tc  N Tc  N Tc  N Tc  N Tc  N Tc  N Tc  N  H 
 1.0000000000000000
     5.6613199999999999    0.0000000000000000    0.0000000000000000
     0.0000000000000000    9.7690699999999993    0.0000000000000000
     0.0000000000000000    0.0000000000000000   29.4171000000000014
 Tc  N   Tc  N   Tc  N   Tc  N   Tc  N   Tc  N   Tc  N   Tc  N   H  
   4   2   4   2   4   2   4   2   4   2   4   2   4   2   4   2   1
Cartesian
  1.4153300000000000  3.8314292539999997  0.8172070380000002
  0.0000000000000000  5.9376407459999996  1.6344140760000003
  0.0000000000000000  8.7159642539999993  1.6344140760000003
  1.4153300000000000  1.0531057460000000  0.8172070380000002
  1.4153300000000000  7.3268024999999994  0.8172070380000002
  0.0000000000000000  2.4422674999999998  1.6344140760000003
  0.0000000000000000  3.8314292539999997  3.2685339810000000
  1.4153300000000000  5.9376407459999996  4.0857410190000003
  1.4153300000000000  8.7159642539999993  4.0857410190000003
  0.0000000000000000  1.0531057460000000  3.2685339810000000
  0.0000000000000000  7.3268024999999994  3.2685339810000000
  1.4153300000000000  2.4422674999999998  4.0857410190000003
  1.4153300842155054  3.8529866493634342  5.7226405598180747
 -0.0030839732129357  5.9556895565061598  6.5504367705540538
 -0.0026226190530294  8.7346629775817455  6.5550481447553093
  1.4153300169490342  1.0595411241279840  5.7220126722272218
  1.4153299804026804  7.3387465732166302  5.7375730461042824
 -0.0019953169385312  2.4635078732097231  6.4939836041832191
  0.0218489805529611  3.8343975934282963  8.1646835207121917
  1.4153299676909079  5.9067677912034888  8.8272941987390823
  1.4153299369707859  8.8191014913250942  8.8320034970809473
  0.0224865992414192  1.1130591146851041  8.1648679697791664
  0.0020544856591665  7.3642271021455494  8.3216317682475243
  1.4153300805079045  2.4745205566999955  8.9333028933169967
  4.2459899999999999  3.8314292539999997  0.8172070380000002
  2.8306600000000000  5.9376407459999996  1.6344140760000003
  2.8306600000000000  8.7159642539999993  1.6344140760000003
  4.2459899999999999  1.0531057460000000  0.8172070380000002
  4.2459899999999999  7.3268024999999994  0.8172070380000002
  2.8306600000000000  2.4422674999999998  1.6344140760000003
  2.8306600000000000  3.8314292539999997  3.2685339810000000
  4.2459899999999999  5.9376407459999996  4.0857410190000003
  4.2459899999999999  8.7159642539999993  4.0857410190000003
  2.8306600000000000  1.0531057460000000  3.2685339810000000
  2.8306600000000000  7.3268024999999994  3.2685339810000000
  4.2459899999999999  2.4422674999999998  4.0857410190000003
  4.2459899740467906  3.8520463090089589  5.7254327102301454
  2.8337440415387221  5.9556896115905147  6.5504370920560122
  2.8332826826119004  8.7346630056535819  6.5550481802423421
  4.2459900010593206  1.0606660998899879  5.7255629917215138
  4.2459899872882287  7.3400604419926569  5.7340095708616170
  2.8326552268967897  2.4635079108153874  6.4939836915766662
  2.8088110941287177  3.8343976585761417  8.1646833501625515
  4.2459900709740719  5.9102593401622077  8.8363890349045686
  4.2459899279666091  8.8124270711596964  8.8410004445846333
  2.8081734982155173  1.1130593286666373  8.1648681376805179
  2.8286054650827066  7.3642270539467338  8.3216316591381219
  4.2459897865481233  2.4723520837822592  9.0102232417666865
  4.2459899724578198  2.4777658082248561 10.0321188518652846
