Tc  N Tc  N Tc  N Tc  N Tc  N Tc  N Tc  N Tc  N  H 
 1.0000000000000000
     5.6613199999999999    0.0000000000000000    0.0000000000000000
     0.0000000000000000    9.7690699999999993    0.0000000000000000
     0.0000000000000000    0.0000000000000000   29.4171000000000014
 Tc  N   Tc  N   Tc  N   Tc  N   Tc  N   Tc  N   Tc  N   Tc  N   H  
   4   2   4   2   4   2   4   2   4   2   4   2   4   2   4   2   1
Cartesian
  1.4153300000000000  3.8314292539999997  0.8172070380000002
  0.0000000000000000  5.9376407459999996  1.6344140760000003
  0.0000000000000000  8.7159642539999993  1.6344140760000003
  1.4153300000000000  1.0531057460000000  0.8172070380000002
  1.4153300000000000  7.3268024999999994  0.8172070380000002
  0.0000000000000000  2.4422674999999998  1.6344140760000003
  0.0000000000000000  3.8314292539999997  3.2685339810000000
  1.4153300000000000  5.9376407459999996  4.0857410190000003
  1.4153300000000000  8.7159642539999993  4.0857410190000003
  0.0000000000000000  1.0531057460000000  3.2685339810000000
  0.0000000000000000  7.3268024999999994  3.2685339810000000
  1.4153300000000000  2.4422674999999998  4.0857410190000003
  1.4155894297654565  3.8542202149999252  5.7193283538479198
 -0.0000000000000002  5.9495625937707066  6.5534447666980453
  0.0000000000000003  8.7319901770672210  6.5612800653250414
  1.4114092563683731  1.0616862019165045  5.7266181656968387
  1.4160260383351972  7.3357973599007664  5.7439188188133485
  0.0000000000000001  2.4708752693803513  6.4832332924179701
 -0.0000000000000001  3.7944951602181081  8.1675564532565037
  1.4554480999968777  5.9105802802419660  8.8611085483411482
  1.4105898503928285  8.7976970899392057  8.8407969776951418
  0.0000000000000000  1.1054500025150555  8.1474102775141599
 -0.0000000000000000  7.2807189564723434  8.3343335092849848
  1.4034596225449099  2.4464871134473269  8.9177660974229376
  4.2459899999999999  3.8314292539999997  0.8172070380000002
  2.8306600000000000  5.9376407459999996  1.6344140760000003
  2.8306600000000000  8.7159642539999993  1.6344140760000003
  4.2459899999999999  1.0531057460000000  0.8172070380000002
  4.2459899999999999  7.3268024999999994  0.8172070380000002
  2.8306600000000000  2.4422674999999998  1.6344140760000003
  2.8306600000000000  3.8314292539999997  3.2685339810000000
  4.2459899999999999  5.9376407459999996  4.0857410190000003
  4.2459899999999999  8.7159642539999993  4.0857410190000003
  2.8306600000000000  1.0531057460000000  3.2685339810000000
  2.8306600000000000  7.3268024999999994  3.2685339810000000
  4.2459899999999999  2.4422674999999998  4.0857410190000003
  4.2457305702345698  3.8542202149999150  5.7193283538479198
  2.8306600000000000  5.9382433411678877  6.5601694541281272
  2.8306600000000000  8.7293402511440377  6.5542101475473826
  4.2499107436316566  1.0616862019165045  5.7266181656968387
  4.2452939616647853  7.3357973599007664  5.7439188188133485
  2.8306600000000000  2.4569543749411329  6.4912905701066936
  2.8306600000000000  3.7637024967284480  8.1493066114400019
  4.2058719000031228  5.9105802802419660  8.8611085483411482
  4.2507301496071612  8.7976970899392057  8.8407969776951418
  2.8306600000000000  1.0991936658481740  8.1732881830672177
  2.8306600000000000  7.3778931473156391  8.2875171939044865
  4.2578603774550707  2.4464871134473269  8.9177660974229376
  2.8306599999999951  4.9102946902036289  9.7513145361094598
