Tc  N Tc  N Tc  N Tc  N Tc  N Tc  N Tc  N Tc  N  H 
 1.0000000000000000
     5.6613199999999999    0.0000000000000000    0.0000000000000000
     0.0000000000000000    9.7690699999999993    0.0000000000000000
     0.0000000000000000    0.0000000000000000   29.4171000000000014
 Tc  N   Tc  N   Tc  N   Tc  N   Tc  N   Tc  N   Tc  N   Tc  N   H  
   4   2   4   2   4   2   4   2   4   2   4   2   4   2   4   2   1
Cartesian
  1.4153300000000000  3.8314292539999997  0.8172070380000002
  0.0000000000000000  5.9376407459999996  1.6344140760000003
  0.0000000000000000  8.7159642539999993  1.6344140760000003
  1.4153300000000000  1.0531057460000000  0.8172070380000002
  1.4153300000000000  7.3268024999999994  0.8172070380000002
  0.0000000000000000  2.4422674999999998  1.6344140760000003
  0.0000000000000000  3.8314292539999997  3.2685339810000000
  1.4153300000000000  5.9376407459999996  4.0857410190000003
  1.4153300000000000  8.7159642539999993  4.0857410190000003
  0.0000000000000000  1.0531057460000000  3.2685339810000000
  0.0000000000000000  7.3268024999999994  3.2685339810000000
  1.4153300000000000  2.4422674999999998  4.0857410190000003
  1.3982015066363789  3.8378657081393768  5.7265311264997720
 -0.0203364527782353  5.9376567853092928  6.5526339174750419
 -0.0203364527782354  8.7159482146907248  6.5526339174750419
  1.3982015066363789  1.0466692918606251  5.7265311264997720
  1.3950924967382912  7.3268024999999994  5.7345300406260939
 -0.0177843249048657  2.4422674999999998  6.4930114559842869
 -0.0494191727167353  3.8032812797837225  8.1648567431328356
  1.3910524787244090  5.8761192735187509  8.8395666718644907
  1.3910524787244090  8.7774857264812294  8.8395666718644925
 -0.0494191727167356  1.0812537202162746  8.1648567431328374
 -0.0287219990723868  7.3268024999999994  8.3205216622455342
  1.3853276547018676  2.4422674999999998  9.0091528372705731
  4.2459899999999999  3.8314292539999997  0.8172070380000002
  2.8306600000000000  5.9376407459999996  1.6344140760000003
  2.8306600000000000  8.7159642539999993  1.6344140760000003
  4.2459899999999999  1.0531057460000000  0.8172070380000002
  4.2459899999999999  7.3268024999999994  0.8172070380000002
  2.8306600000000000  2.4422674999999998  1.6344140760000003
  2.8306600000000000  3.8314292539999997  3.2685339810000000
  4.2459899999999999  5.9376407459999996  4.0857410190000003
  4.2459899999999999  8.7159642539999993  4.0857410190000003
  2.8306600000000000  1.0531057460000000  3.2685339810000000
  2.8306600000000000  7.3268024999999994  3.2685339810000000
  4.2459899999999999  2.4422674999999998  4.0857410190000003
  4.2279716906970535  3.8385039019227145  5.7226280212145850
  2.8062330701212836  5.9377348498468203  6.5535027680872151
  2.8062330701212836  8.7158701501531741  6.5535027680872151
  4.2279716906970535  1.0460310980772909  5.7226280212145850
  4.2237128958733674  7.3268024999999994  5.7371735345050805
  2.8096299471771649  2.4422674999999998  6.4975191050475640
  2.8259508706515071  3.8043495174789550  8.1673156224652139
  4.2210452777490657  5.8708657465978797  8.8313958292211368
  4.2210452777490657  8.7827392534020898  8.8313958292211368
  2.8259508706515071  1.0801854825210484  8.1673156224652139
  2.8062080607675983  7.3268024999999994  8.3167735817822717
  4.2184028160429001  2.4422674999999998  8.9363536357013302
  1.3851214502144040  2.4422674999999998 10.0305398641814545
