Rh Pt Rh Pt Rh Pt Rh  H 
 1.0000000000000000
     5.4945806111655591    0.0000000000000000    0.0000000000000000
     2.7472908055827441    4.7584466632594777    0.0000000000000000
     0.0000000000000000    0.0000000000000000   24.4863052671800645
 Rh  Pt  Rh  Pt  Rh  Pt  Rh  H  
   1   1   3   1   3   1   2   1
Cartesian
  0.0000000000000000  0.0000000000000000  9.9999994272476727
  1.3736454027913720  2.3792233316297389  9.9999994272476727
  2.7472903055827795  0.0000000000000000  9.9999994272476727
  4.1209357083741516  2.3792233316297389  9.9999994272476727
  5.4945809472461598  3.1722977770924672 12.2431526335900323
  4.1209355444547873  0.7930744454627284 12.2431526335900323
  2.7472906416633798  3.1722977770924672 12.2431526335900323
  1.3736452388720075  0.7930744454627284 12.2431526335900323
  2.7554787842227824  1.5812106368381331 14.4646407243265696
  4.1209949911968193  3.9650221626679665 14.4769723459810908
  5.4862208113953503  1.5813995804797911 14.4646797554971656
  6.8680285113577630  3.9750694943193792 14.4644693936486171
  1.3734637657537250  2.3798029722931306 15.4190619808585350
