Ir In Ir In Ir In  H 
 1.0000000000000000
     5.6506926001179973    0.0000000000000000    0.0000000000000000
    -2.8253458000590341    4.8936436536920054    0.0000000000000000
     0.0000000000000000    0.0000000000000000   24.6137692581598309
 Ir  In  Ir  In  Ir  In  H  
   3   1   3   1   3   1   1
Cartesian
  0.0000000000000000  0.0000000000000000  9.9999992923310419
 -1.4126731000295027  2.4468216268460168  9.9999992923310419
  1.4126731000295027  2.4468216268460168  9.9999992923310419
  0.0000000000000000  4.8936432536920336  9.9999992923310419
  2.8253463000589987  1.6312143845640135 12.3068848290799036
  1.4126731000295027  4.0780360114100302 12.3068848290799036
 -1.4126731000295027  4.0780360114100302 12.3068848290799036
  0.0000000000000000  1.6312143845640135 12.3068848290799036
  0.0011636999176486  3.1955627738599262 14.5921065673618422
  1.4655114962902933  0.7599737462190134 14.4565841769523402
  4.1856803037923775  0.7591340462784363 14.4565030769580805
  2.8253318000600247  3.2540910697180601 14.8811416469077251
  0.0006708999525225  2.6810075102734072 16.1132701597138102
