Mo  N Mo  N Mo  N  H 
 1.0000000000000000
     5.6866099999999999    0.0000000000000000    0.0000000000000000
     0.0000000000000000    4.9405700000000001    0.0000000000000000
     0.0000000000000000    0.0000000000000000   25.6720000000000006
 Mo  N   Mo  N   Mo  N   H  
   4   4   4   4   4   4   1
Cartesian
  2.8433050000000000  2.4702850000000001  0.7131681599999999
  2.8433050000000000  0.0000000000000000  2.1392477599999999
  0.0000000000000000  2.4702850000000001  0.7131681599999999
  0.0000000000000000  0.0000000000000000  2.1392477599999999
  1.4216525000000000  1.6468401981000000  2.1392477599999999
  1.4216525000000000  4.1171251981000001  0.7131681599999999
  4.2649574999999995  3.2937298019000001  2.1392477599999999
  4.2649574999999995  0.8234448019000001  0.7131681599999999
  2.8433050000000000  2.4702850000000001  3.5655840800000003
  2.7930686566874674  0.0464615696251246  4.9862042305089087
  0.0000000000000000  2.4702850000000001  3.5655840800000003
 -0.0392499700952344 -0.0595602213711274  4.9720514769714415
  1.3690200651445863  1.6477894986247299  4.9939754094138520
  1.4216525000000000  4.1171251981000001  3.5655840800000003
  4.2189652432441003  3.2790736818646353  4.9986815865030039
  4.2649574999999995  0.8234448019000001  3.5655840800000003
  2.7983751554904917  2.4329398231262722  6.4767752565547916
  2.8230265249136823  0.1260634404393053  7.6595609984962696
 -0.0356004367419446  2.5364876892498098  6.5020536127855841
 -0.1100796672987865 -0.0465625642769762  7.6663512327001362
  1.3544935322616158  1.5313258037947739  7.7714240156813448
  1.4383075010870274  4.0853218415457500  6.4217045018028536
  4.1837627432283364  3.3793013511135164  7.7234288125310018
  4.2896176279243017  0.8545060855356341  6.3778170296913830
  4.2559910143367148  0.6733577467173154  8.8581136055972500
