Fe  N  H 
 1.0000000000000000
     4.3045799999999996    0.0000000000000000    0.0000000000000000
     0.0000000000000000    8.0405899999999999    0.0000000000000000
     0.0000000000000000    0.0000000000000000   27.8534000000000006
 Fe  N   H  
  24   8   1
Cartesian
  0.0000000000000000  4.0202900000000001  2.6446800000000001
  0.0000000000000000  0.0000000000000000  0.3236600000000000
  2.1522899999999998  1.3088500000000001  4.2103200000000003
  2.1522899999999998  5.3291399999999998  1.8890199999999999
  2.1522899999999998  6.7317400000000003  4.2103200000000003
  2.1522899999999998  2.7114500000000001  1.8890199999999999
  2.1522899999999998  4.0202900000000001  4.2643599999999999
  2.1522899999999998  0.0000000000000000  1.9433300000000000
  0.0000000000000000  2.7114500000000001  0.3776900000000000
  0.0000000000000000  6.7317400000000003  2.6989899999999998
  0.0000000000000000  5.3291399999999998  0.3776900000000000
  0.0000000000000000  1.3088500000000001  2.6989899999999998
  0.0102000000000000  4.0396900000000002  7.3220000000000001
 -0.0048400000000000 -0.0043800000000000  4.9422800000000002
  2.2579199999999999  1.3953199999999999  8.6641899999999996
  2.1692900000000002  5.3165899999999997  6.5206099999999996
  2.2066800000000000  7.0673700000000004  8.6283700000000003
  2.1055899999999999  2.6970499999999999  6.4884300000000001
  2.2056300000000002  3.9791799999999999  8.6089900000000004
  2.1339600000000001  0.0095300000000000  6.4793599999999998
 -0.0012800000000000  2.7270900000000000  5.0226499999999996
  0.0173200000000000  6.6527300000000000  7.3055000000000003
 -0.0054800000000000  5.3028100000000000  5.0172699999999999
 -0.0778900000000000  1.3115399999999999  7.3866699999999996
  3.2284299999999999  5.3604200000000004  3.4546600000000001
  3.2284299999999999  1.3401300000000000  1.1333500000000001
  1.0761400000000001  2.6801699999999999  3.4546600000000001
  1.0761400000000001  6.7004599999999996  1.1333500000000001
  3.2442799999999998  5.4536199999999999  8.2298200000000001
  3.2353499999999999  1.3500900000000000  5.7649800000000004
  1.0246299999999999  2.6182799999999999  8.1561500000000002
  1.0699099999999999  6.6785300000000003  5.7509699999999997
  3.0182000000000002  1.6196800000000000  9.9953500000000002
