Fe  N  H 
 1.0000000000000000
     4.3045799999999996    0.0000000000000000    0.0000000000000000
     0.0000000000000000    8.0405899999999999    0.0000000000000000
     0.0000000000000000    0.0000000000000000   27.8534000000000006
 Fe  N   H  
  24   8   1
Cartesian
  0.0000000000000000  4.0202900000000001  2.6446800000000001
  0.0000000000000000  0.0000000000000000  0.3236600000000000
  2.1522899999999998  1.3088500000000001  4.2103200000000003
  2.1522899999999998  5.3291399999999998  1.8890199999999999
  2.1522899999999998  6.7317400000000003  4.2103200000000003
  2.1522899999999998  2.7114500000000001  1.8890199999999999
  2.1522899999999998  4.0202900000000001  4.2643599999999999
  2.1522899999999998  0.0000000000000000  1.9433300000000000
  0.0000000000000000  2.7114500000000001  0.3776900000000000
  0.0000000000000000  6.7317400000000003  2.6989899999999998
  0.0000000000000000  5.3291399999999998  0.3776900000000000
  0.0000000000000000  1.3088500000000001  2.6989899999999998
  0.0308800000000000  4.0737699999999997  7.3222100000000001
  0.0048300000000000  0.0001500000000000  4.9383900000000001
  2.3470599999999999  1.4396899999999999  8.6749600000000004
  2.1736900000000001  5.3257500000000002  6.5110400000000004
  2.0708299999999999  7.0242300000000002  8.6191600000000008
  2.1473700000000000  2.7258300000000002  6.4853199999999998
  2.2519900000000002  3.9758399999999998  8.6585699999999992
  2.1555599999999999  0.0226000000000000  6.5016200000000000
  0.0098100000000000  2.7397300000000002  5.0204199999999997
  0.0021400000000000  6.6772299999999998  7.2973100000000004
 -0.0038900000000000  5.3108500000000003  5.0171999999999999
  0.0279000000000000  1.3261300000000000  7.3200200000000004
  3.2284299999999999  5.3604200000000004  3.4546600000000001
  3.2284299999999999  1.3401300000000000  1.1333500000000001
  1.0761400000000001  2.6801699999999999  3.4546600000000001
  1.0761400000000001  6.7004599999999996  1.1333500000000001
  3.1967300000000001  5.4875400000000001  8.2112700000000007
  3.2548499999999998  1.3614599999999999  5.7580700000000000
  1.0523499999999999  2.6644299999999999  8.1127599999999997
  1.0742900000000000  6.6873800000000001  5.7542400000000002
  2.8935000000000000  2.7561100000000001  9.6624499999999998
