 W  N  H 
 1.0000000000000000
     4.9779200000000001    0.0000000000000000    0.0000000000000000
     0.8442721010000001    5.2673169949999998    0.0000000000000000
     0.0000000000000000    0.0000000000000000   37.4144000000000005
 W   N   H  
  12  18   1
Cartesian
  2.5909900000000001  1.1877800000000001  3.9880000000000000
  2.6034500000000000  0.2822800000000000  1.2694700000000001
  5.0967099999999999  0.7861500000000000  2.5883300000000000
  2.5932400000000002  2.8981800000000000  0.5006000000000000
  5.1371700000000002  2.3718100000000000  8.1300600000000003
  5.1166600000000004  1.4752200000000000  5.4265800000000004
  2.6546599999999998  1.9852000000000001  6.7405900000000001
  5.1064999999999996  4.0911299999999997  4.6577200000000003
  2.7676699999999999  3.6892700000000000 12.1740399999999998
  2.7077100000000001  2.6721800000000000  9.6043800000000008
  5.2255200000000004  3.0997599999999998 10.8584999999999994
  1.8582200000000000  0.0382500000000000  8.7731300000000001
  4.2898399999999999  4.8014799999999997  2.9920300000000002
  4.2572700000000001  3.9780899999999999  0.1691100000000000
  1.7513600000000000  4.3797699999999997  1.5691600000000001
  0.9032000000000000  2.3886200000000000  3.7040299999999999
  3.4034499999999999  1.9748800000000000  2.2160500000000001
  1.0052500000000000  1.5743499999999999  0.8665200000000000
  1.0069800000000000  0.7220200000000000  7.1344799999999999
  1.7926100000000000  5.1710300000000000  4.3262299999999998
  3.4203000000000001  0.3054000000000000  5.7262700000000004
  3.4529100000000001  3.5810499999999998  7.8623900000000004
  0.9567000000000000  3.1625899999999998  6.3685799999999997
  3.5184700000000002  2.7672900000000000  5.0236299999999998
  3.5543100000000001  2.0474100000000002 11.4382099999999998
  3.5096200000000000  1.0972400000000000  8.4777900000000006
  0.9917000000000000  1.4632600000000000  9.9129500000000004
  0.9437300000000000  3.8400200000000000 12.4953800000000008
  3.5838299999999998  4.4198899999999997 10.5277499999999993
  1.0950000000000000  3.9449999999999998  9.1844099999999997
  3.5399799999999999  3.2904599999999999 13.6803100000000004
