Zr Rh Zr Rh Zr Rh Zr  H 
 1.0000000000000000
     5.7245375948922161    0.0000000000000000    0.0000000000000000
     1.9977568586249386    5.3646336203615048    0.0000000000000000
     0.0000000000000000    0.0000000000000000   24.6985632521592215
 Zr  Rh  Zr  Rh  Zr  Rh  Zr  H  
   1   2   2   2   2   2   1   1
Cartesian
  0.0000000000000000  0.0000000000000000  9.9999992162207807
  0.9988784293124693  2.6823168101807524  9.9999992162207807
  2.8622687974461081  0.0000000000000000  9.9999992162207807
  3.8611472267585771  2.6823168101807524  9.9999992162207807
  5.7245375270650012  3.9768033534032079 12.3492816260796108
  4.7256590977525317  1.2944865432224553 12.3492816260796108
  2.8622687296188927  3.9768033534032079 12.3492816260796108
  1.8633903003064234  1.2944865432224553 12.3492816260796108
  3.8256415857379116  2.6495094361925005 14.7216150815288636
  4.7933853273693403  5.3183694170023950 14.4561244703661664
  6.8051287554266144  2.7388793504911289 14.5263465609549929
  7.6792620871106241  5.3430908718614862 14.7219507350034604
  5.6561722158654408  1.9408169151305059 15.7262822931185582
