 W  N  H 
 1.0000000000000000
     5.3345500000000001    0.0000000000000000    0.0000000000000000
     0.0000000000000000    8.6079899999999991    0.0000000000000000
     0.0000000000000000    0.0000000000000000   28.4849999999999994
 W   N   H  
  16  24   1
Cartesian
  0.6793500000000000  1.4489799999999999  2.1793900000000002
  1.4671600000000000  5.7529800000000000  4.5530400000000002
  0.7836500000000000  4.3039899999999998  2.1107399999999998
  1.5715100000000000  0.0000000000000000  4.4846800000000000
  0.6793500000000000  7.1590100000000003  2.1793900000000002
  1.4671600000000000  2.8550100000000000  4.5530400000000002
  3.5368599999999999  4.3039899999999998  2.9889299999999999
  2.7490500000000000  0.0000000000000000  0.6149900000000000
  2.2845300000000002  1.4491499999999999  6.9089200000000002
  3.0396700000000001  5.6515700000000004  9.1600199999999994
  2.3468700000000000  4.3039899999999998  6.8297999999999996
  2.9716700000000000  0.0000000000000000  9.1476199999999999
  2.2845300000000002  7.1588399999999996  6.9089200000000002
  3.0396700000000001  2.9564200000000000  9.1600199999999994
  5.1214899999999997  4.3039899999999998  7.6962900000000003
  4.3230500000000003  0.0000000000000000  5.4182100000000002
  1.3890600000000000  4.3039899999999998  0.1438500000000000
  2.1768700000000001  0.0000000000000000  2.5175000000000001
  2.2071700000000001  2.8548399999999998  2.5682100000000001
  1.4193600000000000  7.1588300000000000  0.1942700000000000
  2.2071700000000001  5.7531499999999998  2.5682100000000001
  1.4193600000000000  1.4491600000000000  0.1942700000000000
  5.0953499999999998  2.9377300000000002  3.3244799999999999
  4.3074899999999996  7.2417299999999996  0.9508300000000000
  4.3202900000000000  4.3039899999999998  1.0297300000000000
  5.1081500000000002  0.0000000000000000  3.4033899999999999
  5.0953499999999998  5.6702599999999999  3.3244799999999999
  4.3074899999999996  1.3662600000000000  0.9508300000000000
  2.9577399999999998  4.3039899999999998  4.9119200000000003
  3.8460299999999998  0.0000000000000000  7.3775800000000000
  3.7971699999999999  2.8401100000000001  7.3127500000000003
  3.0034500000000000  7.1570400000000003  4.9474999999999998
  3.7971699999999999  5.7678799999999999  7.3127500000000003
  3.0034500000000000  1.4509500000000000  4.9474999999999998
  1.3461399999999999  2.9666000000000001  8.1864299999999997
  0.5677100000000000  7.2431700000000001  5.7088900000000002
  0.5543500000000000  4.3039899999999998  5.7877299999999998
  1.4057100000000000  0.0000000000000000  8.1512399999999996
  1.3461399999999999  5.6413900000000003  8.1864299999999997
  0.5677100000000000  1.3648199999999999  5.7088900000000002
  0.4124100000000000  0.0000000000000000 10.2456899999999997
