Ni  N  H 
 1.0000000000000000
     4.6055400000000004    0.0000000000000000    0.0000000000000000
     0.0000000000000000    8.6026199999999999    0.0000000000000000
     0.0000000000000000    0.0000000000000000   31.9081000000000010
 Ni  N   H  
  24   8   1
Cartesian
  1.9386600000000000  2.1506500000000002  1.9942599999999999
  0.3641100000000000  0.0000000000000000  1.9942599999999999
  2.6964100000000002  0.0000000000000000  0.6818800000000000
  4.2119000000000000  2.1506500000000002  0.6818800000000000
  4.2119000000000000  2.1506500000000002  3.3066399999999998
  2.6964100000000002  0.0000000000000000  3.3066399999999998
  4.2772399999999999  2.2196500000000001  6.0580100000000003
  2.6268699999999998 -0.0445900000000000  6.0436800000000002
  0.3867000000000000  0.0003700000000000  4.6412699999999996
  1.9099299999999999  2.1527099999999999  4.6458000000000004
  1.9593799999999999  2.0562999999999998  7.1288400000000003
  0.3402600000000000  0.0966800000000000  7.1084800000000001
  1.9386600000000000  6.4519599999999997  1.9942599999999999
  0.3641100000000000  4.3013100000000000  1.9942599999999999
  2.6964100000000002  4.3013100000000000  0.6818800000000000
  4.2119000000000000  6.4519599999999997  0.6818800000000000
  4.2119000000000000  6.4519599999999997  3.3066399999999998
  2.6964100000000002  4.3013100000000000  3.3066399999999998
  4.2493900000000000  6.5117200000000004  6.0470400000000000
  2.6260300000000001  4.2459800000000003  6.0415700000000001
  0.3729800000000000  4.3147200000000003  4.6521200000000000
  1.9142600000000001  6.4457700000000004  4.6500300000000001
  1.9273899999999999  6.3599600000000001  7.1328899999999997
  0.3665500000000000  4.3952600000000004  7.1683199999999996
  1.1513899999999999  3.2259799999999998  0.6646500000000000
  1.1513899999999999  1.0753299999999999  3.3238699999999999
  3.4508200000000002  3.2249699999999999  4.6688999999999998
  3.4551799999999999  1.0762499999999999  7.2564099999999998
  1.1513899999999999  7.5272899999999998  0.6646500000000000
  1.1513899999999999  5.3766400000000001  3.3238699999999999
  3.4488900000000000  7.5316999999999998  4.6640499999999996
  3.4453000000000000  5.3681500000000000  7.2840299999999996
  4.3219000000000003  4.7810300000000003  8.4906199999999998
