Re Os Re Os Re Os Re  H 
 1.0000000000000000
     5.4908336114307232    0.0000000000000000    0.0000000000000000
     2.7418328059689898    4.7572686633428400    0.0000000000000000
     0.0000000000000000    0.0000000000000000   24.4842172673278249
 Re  Os  Re  Os  Re  Os  Re  H  
   1   2   2   2   2   2   1   1
Cartesian
  0.0000000000000000  0.0000000000000000  9.9999992952279388
  1.3709164029844949  2.3786343316714200  9.9999992952279388
  2.7454168057153616  0.0000000000000000  9.9999992952279388
  4.1163332086998565  2.3786343316714200  9.9999992952279388
  5.4908335160623558  3.1728930697821793 12.2421086336639124
  4.1199171130778609  0.7942587381107596 12.2421086336639124
  2.7454167103469951  3.1728930697821793 12.2421086336639124
  1.3745003073625002  0.7942587381107596 12.2421086336639124
  2.7067710179192193  1.6025900144990461 14.4040469245323983
  4.1265646691120343  3.9708314457868554 14.3924957605100197
  5.5407516281188132  1.6152286358851431 14.4160481819208037
  6.8564189138532621  3.9236008686148143 14.4041052704221464
  4.1490804003788160  0.8113920174154455 15.4613997325066812
