Ni Mn Ni Mn Ni Mn  H 
 1.0000000000000000
     5.0722696410511974    0.0000000000000000    0.0000000000000000
    -2.5361348205255987    4.3927146891411954    0.0000000000000000
     0.0000000000000000    0.0000000000000000   24.1414892915816210
 Ni  Mn  Ni  Mn  Ni  Mn  H  
   3   1   3   1   3   1   1
Cartesian
  0.0000000000000000  0.0000000000000000  9.9999992280394654
 -1.2680674102627993  2.1963573445705977  9.9999992280394654
  1.2680674102627993  2.1963573445705977  9.9999992280394654
  2.5361348205255987  0.0000000000000000  9.9999992280394654
  2.5361348230617331  1.4642382282494937 12.0707446457908105
  1.2680674127989340  3.6605955728200912 12.0707446457908105
 -1.2680674077266647  3.6605955728200912 12.0707446457908105
  0.0000000025361347  1.4642382282494937 12.0707446457908105
  0.0054175517161916  2.9461766148124267 14.1262221407620334
  1.2682821701594014  0.7446410547046903 14.0854607087240460
  3.8063673798073769  0.7308199314173585 14.1243523099919326
  2.5390676195127284  2.9373422505925073 14.1784095224083249
 -1.0548547714726719  2.0850029364928089 15.1048883260449678
