Ni  N  H 
 1.0000000000000000
     4.3013100000000000    0.0000000000000000    0.0000000000000000
     0.0000000000000000    7.9770300000000001    0.0000000000000000
     0.0000000000000000    0.0000000000000000   27.6332999999999984
 Ni  N   H  
  24   8   1
Cartesian
  2.1506500000000002  1.3124600000000000  4.1972199999999997
  2.1506500000000002  5.3009800000000000  1.8942600000000001
  0.0000000000000000  2.6760500000000000  0.3788500000000000
  0.0000000000000000  6.6645700000000003  2.6815400000000000
  0.0000000000000000  3.9885199999999998  2.6522399999999999
  0.0000000000000000  0.0000000000000000  0.3492800000000000
  2.1506500000000002  6.6645700000000003  4.1972199999999997
  2.1506500000000002  2.6760500000000000  1.8942600000000001
  2.1506500000000002  3.9885199999999998  4.2267900000000003
  2.1506500000000002  0.0000000000000000  1.9238299999999999
  0.0000000000000000  5.3009800000000000  0.3788500000000000
  0.0000000000000000  1.3124600000000000  2.6815400000000000
  2.1717900000000001  1.3320099999999999  8.6112400000000004
  2.1505399999999999  5.2698700000000001  6.4999599999999997
  0.0089500000000000  2.6840500000000000  4.9761800000000003
  0.0053300000000000  6.6139299999999999  7.2852699999999997
  0.0255500000000000  4.0185100000000000  7.3522400000000001
  0.0025100000000000 -0.0088300000000000  4.9500700000000002
  2.1000700000000001  6.7875899999999998  8.7570599999999992
  2.2014000000000000  2.6848299999999998  6.4413099999999996
  2.1166900000000002  3.9036300000000002  8.6544699999999999
  2.1671700000000000  0.0024400000000000  6.4532999999999996
  0.0102700000000000  5.2697399999999996  4.9909100000000004
  0.0612700000000000  1.3243400000000001  7.3030200000000001
  1.0753299999999999  5.3180500000000004  3.4395199999999999
  1.0753299999999999  1.3295300000000001  1.1365600000000000
  3.2259799999999998  2.6589800000000001  3.4395199999999999
  3.2259799999999998  6.6475000000000000  1.1365600000000000
  1.1366000000000001  5.3799700000000001  8.1418300000000006
  1.0777300000000001  1.3336399999999999  5.7289500000000002
  3.2705099999999998  2.6400800000000002  8.0226799999999994
  3.2393700000000001  6.6151400000000002  5.7463300000000004
  1.8884399999999999  1.5991000000000000 10.0491499999999991
