Re  N  H 
 1.0000000000000000
     2.8224900000000002    0.0000000000000000    0.0000000000000000
     0.0000000000000000   14.3634799999999991    0.0000000000000000
     0.0000000000000000    0.0000000000000000   29.3321000000000005
 Re  N   H  
  24   8   1
Cartesian
  2.1168700000000000  1.4282999999999999  2.0368200000000001
  2.1168700000000000  5.7534400000000003  2.0368200000000001
  2.1168700000000000  3.5908699999999998  0.4074200000000000
  0.7056200000000000  1.4282999999999999  4.4813599999999996
  0.7056200000000000  5.7534400000000003  4.4813599999999996
  0.7056200000000000  3.5908699999999998  2.8516699999999999
  2.1168700000000000  1.4478899999999999  6.9624899999999998
  2.1168700000000000  5.7292100000000001  6.9022699999999997
  2.1168700000000000  3.5836600000000001  5.2981699999999998
  0.7056200000000000  1.1994800000000001  9.3517100000000006
  0.7056200000000000  5.8823699999999999  9.2730899999999998
  0.7056200000000000  3.6224300000000000  7.7095700000000003
  2.1168700000000000  8.6100399999999997  2.0368200000000001
  2.1168700000000000 12.9351800000000008  2.0368200000000001
  2.1168700000000000 10.7726100000000002  0.4074200000000000
  0.7056200000000000  8.6100399999999997  4.4813599999999996
  0.7056200000000000 12.9351800000000008  4.4813599999999996
  0.7056200000000000 10.7726100000000002  2.8516699999999999
  2.1168700000000000  8.6395599999999995  6.9069300000000000
  2.1168700000000000 12.8964700000000008  6.8937799999999996
  2.1168700000000000 10.7632999999999992  5.2811199999999996
  0.7056200000000000  8.4519800000000007  9.2762100000000007
  0.7056200000000000 13.0792800000000007  9.2779299999999996
  0.7056200000000000 10.7525099999999991  7.7292800000000002
  2.1168700000000000  0.0000000000000000  0.4074200000000000
  0.7056200000000000  0.0000000000000000  2.8516699999999999
  2.1168700000000000  0.0123200000000000  5.3076499999999998
  0.7056200000000000 14.3085199999999997  7.6887499999999998
  2.1168700000000000  7.1817399999999996  0.4074200000000000
  0.7056200000000000  7.1817399999999996  2.8516699999999999
  2.1168700000000000  7.1806400000000004  5.2999700000000001
  0.7056200000000000  7.1775399999999996  7.7101899999999999
  2.1168700000000000  1.7920600000000000 10.4324499999999993
