Mo  N  H 
 1.0000000000000000
     5.7332200000000002    0.0000000000000000    0.0000000000000000
     0.0000000000000000    5.6628600000000002    0.0000000000000000
     0.0000000000000000    0.0000000000000000   34.7558000000000007
 Mo  N   H  
  16  16   1
Cartesian
  2.0455600000000000  4.2363299999999997  1.3012600000000001
  0.7168200000000000  1.4049000000000000  3.8443399999999999
  4.9121699999999997  1.4049000000000000  1.1806500000000000
  5.1213100000000003  4.2363299999999997  1.3012600000000001
  2.2547000000000001  1.4049000000000000  1.1806500000000000
  0.7168200000000000  4.2363299999999997  3.6027900000000002
  3.5834299999999999  1.4442600000000001  3.7233900000000002
  3.5834299999999999  4.2756900000000000  3.7233900000000002
  4.9659399999999998  4.2217399999999996  6.2649200000000000
  3.5826600000000002  1.3576400000000000  8.6241800000000008
  2.1260300000000001  1.4176000000000000  6.2095700000000003
  2.2002400000000000  4.2218000000000000  6.2648700000000002
  5.0404999999999998  1.4174500000000001  6.2097300000000004
  3.5828400000000000  4.2538099999999996  8.5732999999999997
  0.7159300000000000  1.3337900000000000  8.5269700000000004
  0.7166100000000000  4.3268100000000000  8.5488300000000006
  5.0178900000000004  5.6254299999999997  4.5516199999999998
  0.7168200000000000  2.7940000000000000  0.4146400000000000
  2.1490399999999998  2.7940000000000000  2.8955099999999998
  5.0178900000000004  2.7940000000000000  2.8955099999999998
  0.7168200000000000  0.1162000000000000  2.0683199999999999
  2.1490399999999998  5.6254299999999997  4.5516199999999998
  3.5834299999999999  5.6254299999999997  2.0672700000000002
  3.5834299999999999  2.9476300000000002  0.4135900000000000
  2.1498300000000001  5.6597099999999996  9.3278900000000000
  3.5832899999999999  2.8050899999999999  5.3791200000000003
  5.0370100000000004  2.8192100000000000  7.9522800000000000
  2.1289500000000001  2.8190700000000000  7.9520999999999997
  3.5832000000000002  0.0347500000000000  6.9678699999999996
  5.0161300000000004  5.6596599999999997  9.3277500000000000
  0.7166300000000000  5.6300900000000000  6.9597800000000003
  0.7166600000000000  2.9151899999999999  5.3800499999999998
  3.5828300000000000  2.8624000000000001  9.9212399999999992
