 W  N  H 
 1.0000000000000000
     5.9606300000000001    0.0000000000000000    0.0000000000000000
     0.0000000000000000    8.0680399999999999    0.0000000000000000
     0.0000000000000000    0.0000000000000000   34.8271000000000015
 W   N   H  
   8  16   1
Cartesian
  2.2358899999999999  1.0092300000000001  0.3172700000000000
  5.2162100000000002  5.0432499999999996  2.5848700000000000
  2.2358899999999999  3.0247899999999999  3.2197700000000000
  5.2162100000000002  7.0588100000000003  5.4870099999999997
  2.2500300000000002  1.0278900000000000  6.1053100000000002
  5.4538200000000003  5.2123900000000001  8.5290900000000001
  2.4420199999999999  3.0520900000000002  9.1181199999999993
  0.2982300000000000  0.4882400000000000 10.1323600000000003
  0.5719800000000000  0.2337300000000000  0.0675600000000000
  5.3879900000000003  5.6030899999999999  0.8191300000000000
  2.4076800000000000  1.5690700000000000  2.0830099999999998
  3.5522999999999998  4.2677500000000004  2.8345799999999999
  5.3879900000000003  6.4989699999999999  3.7212800000000001
  0.5719800000000000  3.8002899999999999  2.9700600000000001
  3.5522999999999998  7.8343100000000003  5.7367200000000000
  2.4076800000000000  2.4649500000000000  4.9855000000000000
  0.5786400000000000  0.2295400000000000  5.9179899999999996
  5.2830899999999996  5.6424200000000004  6.7152799999999999
  2.5366100000000000  1.7761800000000001  7.8050600000000001
  3.9525700000000001  4.1470300000000000  9.1808599999999991
  5.8179400000000001  6.8034699999999999  9.3957800000000002
  1.0042800000000001  4.1598600000000001  8.7316900000000004
  5.2686900000000003  0.6290000000000000 11.4945500000000003
  1.7824100000000000  1.8632200000000001 10.5467899999999997
  1.8029700000000000  2.1674699999999998 11.5257799999999992
