 W  N  H 
 1.0000000000000000
     5.9606300000000001    0.0000000000000000    0.0000000000000000
     0.0000000000000000    8.0680399999999999    0.0000000000000000
     0.0000000000000000    0.0000000000000000   34.8271000000000015
 W   N   H  
   8  16   1
Cartesian
  2.2358919192999962  1.0092311236000007  0.3172748809999896
  5.2162069192999967  5.0432511236000011  2.5848673619998888
  2.2358919192999962  3.0247888763999993  3.2197653949999827
  5.2162069192999967  7.0588088763999988  5.4870096050000177
  2.2280530602264799  1.0243280032522006  6.0808345426516945
  5.3946238820012358  5.3090316582543906  8.6198594318510420
  2.4224728607866979  2.9039801066567321  9.2107038252006408
 -0.5870624043440366  0.7234019042981208 10.2135650584121418
  0.5719820547999881  0.2337311188000089  0.0675645739999164
  5.3879922759000154  5.6030924191999887  0.8191333919999234
  2.4076772759000158  1.5690724191999896  2.0830088509999585
  3.5522970547999884  4.2677511188000086  2.8345776689999655
  5.3879922759000154  6.4989675808000111  3.7212756350000489
  0.5719820547999881  3.8002888811999909  2.9700550879999095
  3.5522970547999884  7.8343088811999912  5.7367199120000905
  2.4076772759000158  2.4649475808000103  4.9854993649999519
  0.5505920938574048  0.2727822861215535  5.8625107252021307
  5.3888721812385958  5.7011486140580487  6.7724768744887625
  2.4235637379813726  1.9455285545768770  7.6955790628809453
  3.8781973943199954  4.2449745881689687  8.9991423959366870
  5.3896038204522849  7.0123966143524807  9.5047622386213462
  0.9453120703444274  4.2547553115142795  9.0150943935735679
  3.8580183844907112  1.7789194314019645 10.1027228434215299
  0.9060655869341241  1.7702862767021332 10.0394740078185709
 -0.5121197056544277  8.5221074243645649 11.8932411125826185
