 W  N  H 
 1.0000000000000000
     5.9606300000000001    0.0000000000000000    0.0000000000000000
     0.0000000000000000    8.0680399999999999    0.0000000000000000
     0.0000000000000000    0.0000000000000000   34.8271000000000015
 W   N   H  
   8  16   1
Cartesian
  2.2358919192999962  1.0092311236000007  0.3172748809999896
  5.2162069192999967  5.0432511236000011  2.5848673619998888
  2.2358919192999962  3.0247888763999993  3.2197653949999827
  5.2162069192999967  7.0588088763999988  5.4870096050000177
  2.1985386316085558  1.0196639864448382  6.0818803789396716
  5.3607422242097034  5.2523137591609217  8.6020981184564622
  2.4233858326363391  3.0686104813726605  9.1048500423289340
  4.2479475486000000  0.2780857502987861 10.5472109051054552
  0.5719820547999881  0.2337311188000089  0.0675645739999164
  5.3879922759000154  5.6030924191999887  0.8191333919999234
  2.4076772759000158  1.5690724191999896  2.0830088509999585
  3.5522970547999884  4.2677511188000086  2.8345776689999655
  5.3879922759000154  6.4989675808000111  3.7212756350000489
  0.5719820547999881  3.8002888811999909  2.9700550879999095
  3.5522970547999884  7.8343088811999912  5.7367199120000905
  2.4076772759000158  2.4649475808000103  4.9854993649999519
  0.5317299132586082  0.2924798731955797  5.7725128325842228
  5.5177838869309026  5.7261063986096454  6.7805177773690541
  2.2053034486623506  1.8613364658255147  7.7280092606913220
  3.8652934836987662  4.1558401199439530  8.7037407742838937
  4.9302932952846064  6.8162627614291944  9.5370920480435917
  0.8855315489518645  4.2134126880634328  9.2178607250824225
  3.7391199320939204  7.6554630709284641 12.0579461720401770
  3.0793751149365112  1.8077103261751255 10.3563147366853752
  5.6853760967574498  0.9868778081913021 11.1333682774569862
