 W  N  H 
 1.0000000000000000
     5.8133600000000003    0.0000000000000000    0.0000000000000000
     0.0000000000000000    7.8215000000000003    0.0000000000000000
     0.0000000000000000    0.0000000000000000   30.2071000000000005
 W   N   H  
  16  32   1
Cartesian
  2.6644700000000001  1.9553799999999999  2.0975799999999998
  1.2111300000000000  1.9553799999999999  4.6150399999999996
  2.6644700000000001  1.9703500000000000  7.1090999999999998
  1.4942599999999999  1.8267400000000000  9.5966400000000007
  2.6644700000000001  5.8661300000000001  2.0975799999999998
  1.2111300000000000  5.8661300000000001  4.6150399999999996
  2.6644700000000001  5.8511499999999996  7.1090999999999998
  1.4942599999999999  5.9947600000000003  9.5966400000000007
  5.5711500000000003  1.9553799999999999  2.0975799999999998
  4.1178100000000004  1.9553799999999999  4.6150399999999996
  5.5711500000000003  1.9671799999999999  7.1512099999999998
  3.8346800000000001  1.8267400000000000  9.5966400000000007
  5.5711500000000003  5.8661300000000001  2.0975799999999998
  4.1178100000000004  5.8661300000000001  4.6150399999999996
  5.5711500000000003  5.8543200000000004  7.1512099999999998
  3.8346800000000001  5.9947600000000003  9.5966400000000007
  2.6644700000000001  3.2041200000000001  0.4195800000000000
  2.6644700000000001  0.7066300000000000  0.4195800000000000
  1.2111300000000000  3.2041200000000001  2.9367299999999998
  1.2111300000000000  0.7066300000000000  2.9367299999999998
  2.6644700000000001  3.2109299999999998  5.4437600000000002
  2.6644700000000001  0.7038700000000000  5.4489799999999997
  1.2057500000000001  3.2025999999999999  8.0633300000000006
  1.2192900000000000  0.6976300000000000  7.9390799999999997
  2.6644700000000001  7.1148699999999998  0.4195800000000000
  2.6644700000000001  4.6173799999999998  0.4195800000000000
  1.2111300000000000  7.1148699999999998  2.9367299999999998
  1.2111300000000000  4.6173799999999998  2.9367299999999998
  2.6644700000000001  7.1176300000000001  5.4489799999999997
  2.6644700000000001  4.6105700000000001  5.4437600000000002
  1.2192900000000000  7.1238700000000001  7.9390799999999997
  1.2057500000000001  4.6189000000000000  8.0633300000000006
  5.5711500000000003  3.2041200000000001  0.4195800000000000
  5.5711500000000003  0.7066300000000000  0.4195800000000000
  4.1178100000000004  3.2041200000000001  2.9367299999999998
  4.1178100000000004  0.7066300000000000  2.9367299999999998
  5.5711500000000003  3.2062100000000000  5.4664700000000002
  5.5711500000000003  0.7090200000000000  5.4692499999999997
  4.1231799999999996  3.2025999999999999  8.0633300000000006
  4.1096399999999997  0.6976300000000000  7.9390799999999997
  5.5711500000000003  7.1148699999999998  0.4195800000000000
  5.5711500000000003  4.6173799999999998  0.4195800000000000
  4.1178100000000004  7.1148699999999998  2.9367299999999998
  4.1178100000000004  4.6173799999999998  2.9367299999999998
  5.5711500000000003  7.1124799999999997  5.4692499999999997
  5.5711500000000003  4.6152899999999999  5.4664700000000002
  4.1096399999999997  7.1238700000000001  7.9390799999999997
  4.1231799999999996  4.6189000000000000  8.0633300000000006
  2.6644700000000001  0.0000000000000000 10.3825699999999994
