 W  N  W  N  W  N  W  N  W  N  W  N  W  N  W  N  W  N  W  N  W  N  W  N  W  N  W  N  W  N  W  N  H 
 1.0000000000000000
     5.8133600000000003    0.0000000000000000    0.0000000000000000
     0.0000000000000000    7.8215000000000003    0.0000000000000000
     0.0000000000000000    0.0000000000000000   30.2071000000000005
 W   N   W   N   W   N   W   N   W   N   W   N   W   N   W   N   W   N   W   N   W   N   W   N   W   N   W   N   W   N   W   N   H  
   1   2   1   2   1   2   1   2   1   2   1   2   1   2   1   2   1   2   1   2   1   2   1   2   1   2   1   2   1   2   1   2   1
Cartesian
  2.6644663556000001  1.9553750000000001  2.0975810240000001
  2.6644663556000001  3.2041165825000002  0.4195766190000000
  2.6644663556000001  0.7066334175000000  0.4195766190000000
  1.2111263556000000  1.9553750000000001  4.6150407380000003
  1.2111263556000000  3.2041165825000002  2.9367342619999999
  1.2111263556000000  0.7066334175000000  2.9367342619999999
  2.6726219746420861  1.9799962870463412  7.1403709935521507
  2.6639229364642247  3.2095027283267195  5.4553672257978176
  2.6628400890758663  0.7069340771909361  5.4587925459377962
  1.2111263556000000  1.2890967297142633  9.7070747043049579
  1.2111263556000000  3.2372453680884479  7.9510478920256062
  1.2111263556000000  0.6918202400037577  7.8151414674222854
  2.6644663556000001  5.8661250000000003  2.0975810240000001
  2.6644663556000001  7.1148665825000004  0.4195766190000000
  2.6644663556000001  4.6173834175000001  0.4195766190000000
  1.2111263556000000  5.8661250000000003  4.6150407380000003
  1.2111263556000000  7.1148665825000004  2.9367342619999999
  1.2111263556000000  4.6173834175000001  2.9367342619999999
  2.6726219746420861  5.8415037129536751  7.1403709935521462
  2.6628400890758663  7.1145659228090468  5.4587925459377962
  2.6639229364642247  4.6119972716733075  5.4553672257978176
  1.2111263556000000  6.5324032702857515  9.7070747043049579
  1.2111263556000000  7.1296797599962334  7.8151414674222854
  1.2111263556000000  4.5842546319115574  7.9510478920256062
  5.5711463555999998  1.9553750000000001  2.0975810240000001
  5.5711463555999998  3.2041165825000002  0.4195766190000000
  5.5711463555999998  0.7066334175000000  0.4195766190000000
  4.1178063556000000  1.9553750000000001  4.6150407380000003
  4.1178063556000000  3.2041165825000002  2.9367342619999999
  4.1178063556000000  0.7066334175000000  2.9367342619999999
  5.5629907365579001  1.9799962870463383  7.1403709935521462
  5.5716897747357885  3.2095027283267124  5.4553672257978176
  5.5727726221241376  0.7069340771909361  5.4587925459377962
  4.1178063556000000  1.8014128344439433  9.5974572749112887
  4.1178063556000000  3.2000924059723754  8.1278032890566116
  4.1178063556000000  0.6933763325395841  7.9383696217660118
  5.5711463555999998  5.8661250000000003  2.0975810240000001
  5.5711463555999998  7.1148665825000004  0.4195766190000000
  5.5711463555999998  4.6173834175000001  0.4195766190000000
  4.1178063556000000  5.8661250000000003  4.6150407380000003
  4.1178063556000000  7.1148665825000004  2.9367342619999999
  4.1178063556000000  4.6173834175000001  2.9367342619999999
  5.5629907365579001  5.8415037129536751  7.1403709935521462
  5.5727726221241376  7.1145659228090468  5.4587925459377962
  5.5716897747357885  4.6119972716733093  5.4553672257978176
  4.1178063556000000  6.0200871655560535  9.5974572749112887
  4.1178063556000000  7.1281236674604314  7.9383696217660118
  4.1178063556000000  4.6214075940276249  8.1278032890566116
  1.2111263555999996  0.0000000000000104 11.0455066307710990
