 W  N  H 
 1.0000000000000000
     6.2712700000000003    0.0000000000000000    0.0000000000000000
     0.0000000000000000    9.9430899999999998    0.0000000000000000
     0.0000000000000000    0.0000000000000000   28.7031999999999989
 W   N   H  
  12  24   1
Cartesian
  2.0903999999999998  2.6162299999999998  5.6723299999999997
  2.0903999999999998  7.5877699999999999  2.8020100000000001
  0.0000000000000000  4.9715400000000001  4.0112699999999997
  0.0000000000000000  0.0000000000000000  1.1409499999999999
  4.1808699999999996  7.3268599999999999  5.6723299999999997
  4.1808699999999996  2.3553199999999999  2.8020100000000001
  2.3138000000000001  2.7104400000000002 11.4909300000000005
  2.1338599999999999  7.5725400000000000  8.5789799999999996
  0.0016300000000000  4.9272400000000003  9.7708499999999994
  0.0075300000000000 -0.0280700000000000  6.8455899999999996
  4.2969099999999996  7.4204299999999996 11.3773300000000006
  4.1767599999999998  2.3143400000000001  8.5465999999999998
  3.3711199999999999  2.0656800000000000  4.4449800000000002
  3.3711199999999999  7.0372199999999996  1.5746599999999999
  1.2806599999999999  4.1840500000000000  5.1014200000000001
  1.2806599999999999  9.1555999999999997  2.2311000000000001
  5.4615200000000002  3.6933600000000002  2.9386299999999999
  5.4615200000000002  8.6649100000000008  0.0683100000000000
  4.9906100000000002  5.7590399999999997  5.1014200000000001
  4.9906100000000002  0.7874900000000000  2.2311000000000001
  0.8097500000000000  6.2497299999999996  2.9386299999999999
  0.8097500000000000  1.2781800000000001  0.0683100000000000
  2.9001500000000000  7.8774100000000002  4.4449800000000002
  2.9001500000000000  2.9058700000000002  1.5746599999999999
  3.4070900000000002  1.9525200000000000 10.2676599999999993
  3.3955000000000002  7.0582799999999999  7.3796200000000001
  1.1622200000000000  4.0147000000000004 10.9359800000000007
  1.2513900000000000  9.0679599999999994  7.9791200000000000
  5.4332000000000003  3.6981099999999998  8.6994699999999998
  5.4849100000000002  8.6607699999999994  5.7693700000000003
  5.0493600000000001  5.8511300000000004 10.9109499999999997
  4.9827800000000000  0.7792200000000000  7.9369500000000004
  0.9365599999999999  6.1533499999999997  8.7701100000000007
  0.8187400000000000  1.2545500000000001  5.8149400000000000
  2.9988999999999999  7.9646200000000000 10.2637000000000000
  2.9032300000000002  2.8700899999999998  7.3696599999999997
  3.5588199999999999  7.1800600000000001 12.9092699999999994
