 W  N  H 
 1.0000000000000000
     6.2712700000000003    0.0000000000000000    0.0000000000000000
     0.0000000000000000    9.9430899999999998    0.0000000000000000
     0.0000000000000000    0.0000000000000000   28.7031999999999989
 W   N   H  
  12  24   1
Cartesian
  2.0903999999999998  2.6162299999999998  5.6723299999999997
  2.0903999999999998  7.5877699999999999  2.8020100000000001
  0.0000000000000000  4.9715400000000001  4.0112699999999997
  0.0000000000000000  0.0000000000000000  1.1409499999999999
  4.1808699999999996  7.3268599999999999  5.6723299999999997
  4.1808699999999996  2.3553199999999999  2.8020100000000001
  2.2550300000000001  2.6913499999999999 11.4659800000000001
  2.1213400000000000  7.5715700000000004  8.5701999999999998
  0.0138000000000000  4.9627600000000003  9.7494800000000001
  0.0173300000000000 -0.0200000000000000  6.8519199999999998
  3.9661300000000002  7.1395700000000000 11.5615199999999998
  4.1590400000000001  2.3137500000000002  8.5615100000000002
  3.3711199999999999  2.0656800000000000  4.4449800000000002
  3.3711199999999999  7.0372199999999996  1.5746599999999999
  1.2806599999999999  4.1840500000000000  5.1014200000000001
  1.2806599999999999  9.1555999999999997  2.2311000000000001
  5.4615200000000002  3.6933600000000002  2.9386299999999999
  5.4615200000000002  8.6649100000000008  0.0683100000000000
  4.9906100000000002  5.7590399999999997  5.1014200000000001
  4.9906100000000002  0.7874900000000000  2.2311000000000001
  0.8097500000000000  6.2497299999999996  2.9386299999999999
  0.8097500000000000  1.2781800000000001  0.0683100000000000
  2.9001500000000000  7.8774100000000002  4.4449800000000002
  2.9001500000000000  2.9058700000000002  1.5746599999999999
  3.3638100000000000  1.9221800000000000 10.2635500000000004
  3.4018299999999999  7.0659099999999997  7.3853099999999996
  1.2006900000000000  4.0713499999999998 10.9037199999999999
  1.2809500000000000  9.0942399999999992  7.9796399999999998
  5.3816899999999999  3.7205699999999999  8.7542100000000005
  5.4820300000000000  8.6632899999999999  5.7910599999999999
  5.1068100000000003  5.9087899999999998 10.9208300000000005
  5.0079900000000004  0.8041100000000000  7.9487800000000002
  0.8954200000000000  6.1683899999999996  8.6786899999999996
  0.8160600000000000  1.2557199999999999  5.8039800000000001
  2.9021499999999998  7.8729100000000001 10.3143200000000004
  2.8952200000000001  2.8651599999999999  7.3732699999999998
  2.9516000000000000  6.2996100000000004 12.6696500000000007
