Au Cd Au Cd Au Cd  H 
 1.0000000000000000
     6.0042645750968049    0.0000000000000000    0.0000000000000000
    -3.0021317875484375    5.1998456320230400    0.0000000000000000
     0.0000000000000000    0.0000000000000000   24.9024602377300681
 Au  Cd  Au  Cd  Au  Cd  H  
   3   1   3   1   3   1   1
Cartesian
  0.0000000000000000  0.0000000000000000  9.9999994768153648
 -1.5010658937742187  2.5999228160115200  9.9999994768153648
  1.5010663937741837  2.5999228160115200  9.9999994768153648
  3.0021322875484024  0.0000000000000000  9.9999994768153648
  3.0021324572171895  1.7332818756077315 12.4512301188650341
  1.5010665634429707  4.3332046916192510 12.4512301188650341
 -1.5010657241054317  4.3332046916192510 12.4512301188650341
  0.0000001696687870  1.7332818756077315 12.4512301188650341
  0.0212849717083579  3.3811937099984979 15.2005548643117212
  1.4377630764359131  0.9278143059482070 15.2005567818011613
  4.5269141421823402  0.8803735819224381 14.8671404560463571
  2.9798766181527445  3.4537438334007571 15.0195353197918493
 -0.7073463227602130  4.7914852970288457 16.0355418766258033
