 V  N  V  N  V  N  V  N  V  N  V  N  V  N  V  N  V  N  V  N  V  N  V  N  V  N  V  N  V  N  V  N  H 
 1.0000000000000000
     5.4577999999999998    0.0000000000000000    0.0000000000000000
     0.0000000000000000    5.2779199999999999    0.0000000000000000
     0.0000000000000000    0.0000000000000000   30.7228999999999992
 V   N   V   N   V   N   V   N   V   N   V   N   V   N   V   N   V   N   V   N   V   N   V   N   V   N   V   N   V   N   V   N   H  
   1   1   1   1   1   1   1   1   1   1   1   1   1   1   1   1   1   1   1   1   1   1   1   1   1   1   1   1   1   1   1   1   1
Cartesian
  1.8192757629999998  0.0000000000000000  1.5754703120000000
  0.4548257630000000  1.3194800000000000  0.7877351560000000
  0.4548257630000000  0.0000000000000000  3.9389830089999998
  1.8192757629999998  1.3194800000000000  3.1509406240000000
  1.8375866152024503  0.0007520256257501  6.2920834422279972
  0.4686439644563128  1.3194800000000000  5.5176979802192481
  0.4803024365262871 -0.0041834944004917  8.5608039464916690
  1.8552973391510643  1.3194800000000000  7.9441288424165375
  1.8192757629999998  2.6389600000000000  1.5754703120000000
  0.4548257630000000  3.9584400000000000  0.7877351560000000
  0.4548257630000000  2.6389600000000000  3.9389830089999998
  1.8192757629999998  3.9584400000000000  3.1509406240000000
  1.8375866152024503  2.6382079743742555  6.2920834422279972
  0.4688916767949229  3.9584400000000000  5.5076447744917454
  0.4803024365262871  2.6431434944004959  8.5608039464916690
  1.8397066370442299  3.9584400000000000  7.8786307187086928
  4.5481757629999997  0.0000000000000000  1.5754703120000000
  3.1837257630000000  1.3194800000000000  0.7877351560000000
  3.1837257630000000  0.0000000000000000  3.9389830089999998
  4.5481757629999997  1.3194800000000000  3.1509406240000000
  4.5628623350223307  0.0006905538194423  6.2919354506750231
  3.1974677373251681  1.3194800000000000  5.5162219527982286
  3.2102348649796695 -0.0284257641472052  8.6009222622542403
  4.5630184507453295  1.3194800000000000  7.9458261877591383
  4.5481757629999997  2.6389600000000000  1.5754703120000000
  3.1837257630000000  3.9584400000000000  0.7877351560000000
  3.1837257630000000  2.6389600000000000  3.9389830089999998
  4.5481757629999997  3.9584400000000000  3.1509406240000000
  4.5628623350223307  2.6382694461805563  6.2919354506750231
  3.1973208917595355  3.9584400000000000  5.5102608378715479
  3.2102348649796695  2.6673857641472050  8.6009222622542403
  4.5797172281223935  3.9584400000000000  7.8755460153684709
  3.2205208238246357  3.9584400000000022  9.8913495362408099
