 V  N  V  N  V  N  V  N  V  N  V  N  V  N  V  N  V  N  V  N  V  N  V  N  V  N  V  N  V  N  V  N  H 
 1.0000000000000000
     5.4577999999999998    0.0000000000000000    0.0000000000000000
     0.0000000000000000    5.2779199999999999    0.0000000000000000
     0.0000000000000000    0.0000000000000000   30.7228999999999992
 V   N   V   N   V   N   V   N   V   N   V   N   V   N   V   N   V   N   V   N   V   N   V   N   V   N   V   N   V   N   V   N   H  
   1   1   1   1   1   1   1   1   1   1   1   1   1   1   1   1   1   1   1   1   1   1   1   1   1   1   1   1   1   1   1   1   1
Cartesian
  1.8192757629999998  0.0000000000000000  1.5754703120000000
  0.4548257630000000  1.3194800000000000  0.7877351560000000
  0.4548257630000000  0.0000000000000000  3.9389830089999998
  1.8192757629999998  1.3194800000000000  3.1509406240000000
  1.8192757629999998  0.0000000000000000  6.2938364714419093
  0.4588916275715472  1.3243319941569864  5.5121134206658597
  0.4506452664138199 -0.0000000000000000  8.5377181232243675
  1.8192757629999998  1.3395380954912368  7.9444712373634729
  1.8192757629999998  2.6389600000000000  1.5754703120000000
  0.4548257630000000  3.9584400000000000  0.7877351560000000
  0.4548257630000000  2.6389600000000000  3.9389830089999998
  1.8192757629999998  3.9584400000000000  3.1509406240000000
  1.8192757629999998  2.6389600000000000  6.2987218271261707
  0.4588916275715467  3.9535880058430095  5.5121134206658597
  0.4118410221626381  2.6389600000000000  8.6347439053674666
  1.8192757629999998  3.9383819045087645  7.9444712373634729
  4.5481757629999997  0.0000000000000000  1.5754703120000000
  3.1837257630000000  1.3194800000000000  0.7877351560000000
  3.1837257630000000  0.0000000000000000  3.9389830089999998
  4.5481757629999997  1.3194800000000000  3.1509406240000000
  4.5481757629999997 -0.0000000000000000  6.2727724859256542
  3.1796598984284508  1.3243319941569864  5.5121134206658597
  3.1879062595861831  0.0000000000000000  8.5377181232243675
  4.5481757629999997  1.3213807304982705  7.8743180009333624
  4.5481757629999997  2.6389600000000000  1.5754703120000000
  3.1837257630000000  3.9584400000000000  0.7877351560000000
  3.1837257630000000  2.6389600000000000  3.9389830089999998
  4.5481757629999997  3.9584400000000000  3.1509406240000000
  4.5481757629999997  2.6389600000000000  6.2893345233008615
  3.1796598984284508  3.9535880058430095  5.5121134206658597
  3.2267105038373662  2.6389600000000000  8.6347439053674666
  4.5481757629999997  3.9565392695017287  7.8743180009333624
  4.5481757629999997  2.6389600000000000  9.9189934946435354
