 V  N  V  N  V  N  V  N  V  N  V  N  V  N  V  N  V  N  V  N  V  N  V  N  V  N  V  N  V  N  V  N  H 
 1.0000000000000000
     5.4577999999999998    0.0000000000000000    0.0000000000000000
     0.0000000000000000    5.2779199999999999    0.0000000000000000
     0.0000000000000000    0.0000000000000000   30.7228999999999992
 V   N   V   N   V   N   V   N   V   N   V   N   V   N   V   N   V   N   V   N   V   N   V   N   V   N   V   N   V   N   V   N   H  
   1   1   1   1   1   1   1   1   1   1   1   1   1   1   1   1   1   1   1   1   1   1   1   1   1   1   1   1   1   1   1   1   1
Cartesian
  1.8192757629999998  0.0000000000000000  1.5754703120000000
  0.4548257630000000  1.3194800000000000  0.7877351560000000
  0.4548257630000000  0.0000000000000000  3.9389830089999998
  1.8192757629999998  1.3194800000000000  3.1509406240000000
  1.8192757629999998 -0.0035917983885097  6.2691107791159650
  0.4449579752653721  1.3194800000000000  5.5057392272269281
  0.4908290724657657  0.0233939615814709  8.5981284172980157
  1.8192757629999998  1.3194800000000000  7.7679145283911195
  1.8192757629999998  2.6389600000000000  1.5754703120000000
  0.4548257630000000  3.9584400000000000  0.7877351560000000
  0.4548257630000000  2.6389600000000000  3.9389830089999998
  1.8192757629999998  3.9584400000000000  3.1509406240000000
  1.8192757629999998  2.6425517983885092  6.2691107791159650
  0.4459530407337067  3.9584400000000000  5.5177790011324834
  0.4908290724657657  2.6155660384185313  8.5981284172980157
  1.8192757629999998  3.9584400000000000  7.9238082828875376
  4.5481757629999997  0.0000000000000000  1.5754703120000000
  3.1837257630000000  1.3194800000000000  0.7877351560000000
  3.1837257630000000  0.0000000000000000  3.9389830089999998
  4.5481757629999997  1.3194800000000000  3.1509406240000000
  4.5481757629999997 -0.0013509744086792  6.3129816792959783
  3.1935935507346236  1.3194800000000000  5.5057392272269281
  3.1477224535342363  0.0233939615814709  8.5981284172980157
  4.5481757629999997  1.3194800000000000  7.9458077794344284
  4.5481757629999997  2.6389600000000000  1.5754703120000000
  3.1837257630000000  3.9584400000000000  0.7877351560000000
  3.1837257630000000  2.6389600000000000  3.9389830089999998
  4.5481757629999997  3.9584400000000000  3.1509406240000000
  4.5481757629999997  2.6403109744086777  6.3129816792959783
  3.1925984852662941  3.9584400000000000  5.5177790011324834
  3.1477224535342363  2.6155660384185313  8.5981284172980157
  4.5481757629999997  3.9584400000000000  7.9735679027226523
  1.8192757629999998  1.3194800000000000  9.8695377230226384
