Co Pd Co Pd Co Pd Co  H 
 1.0000000000000000
     5.3554756210095880    0.0000000000000000    0.0000000000000000
     2.6493698125123091    4.6542416706337413    0.0000000000000000
     0.0000000000000000    0.0000000000000000   24.3802222746872275
 Co  Pd  Co  Pd  Co  Pd  Co  H  
   1   2   2   2   2   2   1   1
Cartesian
  0.0000000000000000  0.0000000000000000  9.9999993707366048
  1.3246849062561545  2.3271208353168706  9.9999993707366048
  2.6777378105047940  0.0000000000000000  9.9999993707366048
  4.0024227167609485  2.3271208353168706  9.9999993707366048
  5.3554760009149787  3.1138239678128139 12.1901111373436137
  4.0307910946588246  0.7867031324959435 12.1901111373436137
  2.6777381904101851  3.1138239678128139 12.1901111373436137
  1.3530532841540304  0.7867031324959435 12.1901111373436137
  2.6688139297607592  1.5575950287783853 14.2918177799603789
  4.0642495393032938  3.9198898114799361 14.3870203293428069
  5.4315725392507028  1.6010305623083911 14.4354920633000035
  6.6763450614133930  3.8763144831471115 14.2919775679371686
  3.9309817313367681  0.7288237463755762 15.1863238686797573
