Nb  N Nb  N  H 
 1.0000000000000000
     4.9976799999999999    0.0000000000000000    0.0000000000000000
     0.0000000000000000    9.2379899999999999    0.0000000000000000
     0.0000000000000000    0.0000000000000000   32.0013000000000005
 Nb  N   Nb  N   H  
  12   6  12   6   1
Cartesian
  1.2428730392000000  4.6189950000000000  3.1102063470000001
  1.2428730392000000  0.0000000000000000  0.4435380180000000
  1.2428730392000000  3.0802230057000002  0.4448180700000000
  1.2428730392000000  7.6992180056999997  3.1118064120000000
  1.2428730392000000  6.1577669943000002  0.4448180700000000
  1.2428730392000000  1.5387719943000000  3.1118064120000000
  3.7548069607999999  4.6189950000000000  4.8901186530000000
  3.7548069607999999  0.0000000000000000  2.2234503239999999
  3.7548069607999999  1.5387719943000000  4.8885185880000002
  3.7548069607999999  6.1577669943000002  2.2218502590000000
  3.7548069607999999  7.6992180056999997  4.8885185880000002
  3.7548069607999999  3.0802230057000002  2.2218502590000000
  2.4988400000000000  6.1586907932999999  4.0001625000000001
  2.4988400000000000  1.5396957933000002  1.3334941709999999
  2.4988400000000000  3.0792992067000000  4.0001625000000001
  2.4988400000000000  7.6982942067000000  1.3334941709999999
  0.0000000000000000  4.6189950000000000  1.3334941709999999
  0.0000000000000000  0.0000000000000000  4.0001625000000001
  1.2405184427081626  4.6216795732090983  8.4676474668654880
  1.2258723563647749  0.0023322322245802  5.7696778020848063
  1.2316954293071456  3.0836408453930733  5.7709148158353845
  1.2654672574804291  7.7066474006276184  8.4531549223136651
  1.2360231907851045  6.1585696973539159  5.7716416420656103
  1.2477890645196716  1.5596609283178842  8.4423695576148319
  3.7362535717856264  4.6616425758832349  9.9426698000639302
  3.7330827330368970  0.0131877465246836  7.4896108856742716
  3.7546220315264129  1.5495011503545830  9.9299881730955839
  3.7572747699625428  6.1641823580384241  7.5114265891883454
  3.7743200312175529  7.7095844197915966  9.9598864546680179
  3.7493393103696775  3.0912238838254207  7.5000412255200954
  2.4129209961036073  6.1741932019543517  9.3675551072196335
  2.4647518245680362  1.5431316502847057  6.6441155866432995
  2.4372657707036054  3.0750743669447300  9.3735613194770089
  2.4703254197238182  7.7046417100700788  6.6446489757087539
  0.0191341068717365  4.6241140630740727  6.6654441385860643
  0.0560340405822575  0.0120428569330099  9.3265453983063882
  4.4807527461370844  6.1861463880029275 10.9649116672401998
