Hf  Y Hf  Y Hf  Y Hf  H 
 1.0000000000000000
     6.5015965399021631    0.0000000000000000    0.0000000000000000
     3.2507987699510461    5.6305476015435962    0.0000000000000000
     0.0000000000000000    0.0000000000000000   25.3085302089937514
 Hf  Y   Hf  Y   Hf  Y   Hf  H  
   1   1   3   1   3   1   2   1
Cartesian
  0.0000000000000000  0.0000000000000000  9.9999993891005374
  1.6253993849755231  2.8152738007717981  9.9999993891005374
  3.2507982699510816  0.0000000000000000  9.9999993891005374
  4.8761976549266048  2.8152738007717981  9.9999993891005374
  6.5015968764862713  3.7536984029059135 12.6542651044968757
  4.8761974915107480  0.9384246021341152 12.6542651044968757
  3.2507986065351897  3.7536984029059135 12.6542651044968757
  1.6253992215596667  0.9384246021341152 12.6542651044968757
  3.1330950082765527  1.9084432034674170 15.1578647611833475
  4.8760924923318534  4.6904714359259012 15.4545108523837023
  6.6187793723669976  1.9081759720477001 15.1580267357766854
  8.1269871094887840  4.5811749451545110 15.0837190435603734
  1.6252116947423263  1.1437870130115497 16.3727418102992353
