Nb  N  H 
 1.0000000000000000
     5.3335600000000003    0.0000000000000000    0.0000000000000000
     0.0000000000000000    9.9953599999999998    0.0000000000000000
     0.0000000000000000    0.0000000000000000   32.3329999999999984
 Nb  N   H  
  24  12   1
Cartesian
  0.4449800000000000  3.7548100000000000  0.7708199999999999
  3.1102099999999999  3.7548100000000000  2.3095500000000002
  0.4449800000000000  3.7548100000000000  3.8482699999999999
  2.2218000000000000  1.2428699999999999  3.8482699999999999
  4.8901300000000001  1.2428699999999999  2.3095500000000002
  2.2218000000000000  1.2428699999999999  0.7708199999999999
  3.1417899999999999  3.7734000000000001  5.3927100000000001
  0.4638700000000000  3.7763700000000000  6.9068600000000000
  3.0488599999999999  3.5978599999999998  8.2747399999999995
  4.9749600000000003  1.4404800000000000  8.2776899999999998
  2.2250299999999998  1.2524400000000000  6.9146900000000002
  4.8732499999999996  1.2476499999999999  5.3961600000000001
  0.4449800000000000  8.7524899999999999  0.7708199999999999
  3.1102099999999999  8.7524899999999999  2.3095500000000002
  0.4449800000000000  8.7524899999999999  3.8482699999999999
  2.2218000000000000  6.2405499999999998  3.8482699999999999
  4.8901300000000001  6.2405499999999998  2.3095500000000002
  2.2218000000000000  6.2405499999999998  0.7708199999999999
  3.1385999999999998  8.7793600000000005  5.3845900000000002
  0.4603700000000000  8.7610499999999991  6.9043599999999996
  3.1030000000000002  8.5600299999999994  8.3366299999999995
  4.9216800000000003  6.4690599999999998  8.3354199999999992
  2.2290000000000001  6.2611900000000000  6.9067299999999996
  4.8773000000000000  6.2381200000000003  5.3855500000000003
  4.0001699999999998  2.4988400000000000  0.7698500000000000
  4.0001699999999998  2.4988400000000000  3.8492400000000000
  1.3333900000000001  0.0000000000000000  2.3095500000000002
  1.3433900000000001  2.5061499999999999  5.3689499999999999
  1.3438500000000000  2.5220699999999998  8.4489900000000002
  3.9985499999999998  9.9950299999999999  7.0039999999999996
  4.0001699999999998  7.4965200000000003  0.7698500000000000
  4.0001699999999998  7.4965200000000003  3.8492400000000000
  1.3333900000000001  4.9976799999999999  2.3095500000000002
  1.3443200000000000  7.5062499999999996  5.3723900000000002
  1.3469199999999999  7.5135899999999998  8.4099500000000003
  4.0245499999999996  5.0293099999999997  6.9990600000000001
  4.0198999999999998  7.5213099999999997  9.7411799999999999
