Nb  N  H 
 1.0000000000000000
     5.3335600000000003    0.0000000000000000    0.0000000000000000
     0.0000000000000000    9.9953599999999998    0.0000000000000000
     0.0000000000000000    0.0000000000000000   32.3329999999999984
 Nb  N   H  
  24  12   1
Cartesian
  0.4449800000000000  3.7548100000000000  0.7708199999999999
  3.1102099999999999  3.7548100000000000  2.3095500000000002
  0.4449800000000000  3.7548100000000000  3.8482699999999999
  2.2218000000000000  1.2428699999999999  3.8482699999999999
  4.8901300000000001  1.2428699999999999  2.3095500000000002
  2.2218000000000000  1.2428699999999999  0.7708199999999999
  3.1356999999999999  3.7541899999999999  5.4045500000000004
  0.4522000000000000  3.7620499999999999  6.9027000000000003
  3.0346700000000002  3.6959599999999999  8.3381799999999995
  4.9550900000000002  1.4640100000000000  8.2681900000000006
  2.2122199999999999  1.2352700000000001  6.9259100000000000
  4.8705999999999996  1.2421199999999999  5.3893300000000002
  0.4449800000000000  8.7524899999999999  0.7708199999999999
  3.1102099999999999  8.7524899999999999  2.3095500000000002
  0.4449800000000000  8.7524899999999999  3.8482699999999999
  2.2218000000000000  6.2405499999999998  3.8482699999999999
  4.8901300000000001  6.2405499999999998  2.3095500000000002
  2.2218000000000000  6.2405499999999998  0.7708199999999999
  3.1314500000000001  8.7670700000000004  5.3878100000000000
  0.4482100000000000  8.7807999999999993  6.9196999999999997
  3.0368300000000001  8.5615000000000006  8.2703399999999991
  4.9597499999999997  6.3333300000000001  8.3389399999999991
  2.2106400000000002  6.2556399999999996  6.9051099999999996
  4.8661599999999998  6.2554800000000004  5.4050700000000003
  4.0001699999999998  2.4988400000000000  0.7698500000000000
  4.0001699999999998  2.4988400000000000  3.8492400000000000
  1.3333900000000001  0.0000000000000000  2.3095500000000002
  1.3415100000000000  2.4986100000000002  5.3699199999999996
  1.3543400000000001  2.5284700000000000  8.4166600000000003
  3.9972599999999998  0.0124800000000000  6.9999700000000002
  4.0001699999999998  7.4965200000000003  0.7698500000000000
  4.0001699999999998  7.4965200000000003  3.8492400000000000
  1.3333900000000001  4.9976799999999999  2.3095500000000002
  1.3287700000000000  7.5084600000000004  5.3673000000000002
  1.3104600000000000  7.4953799999999999  8.4163300000000003
  3.9997500000000001  5.0104699999999998  6.9561599999999997
  3.9894099999999999  5.0211300000000003  9.5066500000000005
