Nb  N Nb  N Nb  N Nb  N  H 
 1.0000000000000000
     5.3335600000000003    0.0000000000000000    0.0000000000000000
     0.0000000000000000    9.9953599999999998    0.0000000000000000
     0.0000000000000000    0.0000000000000000   32.3329999999999984
 Nb  N   Nb  N   Nb  N   Nb  N   H  
   6   3   6   3   6   3   6   3   1
Cartesian
  0.4449789108000001  3.7548069607999999  0.7708187200000000
  3.1102121784000003  3.7548069607999999  2.3095461899999998
  0.4449789108000001  3.7548069607999999  3.8482736599999998
  2.2218010892000000  1.2428730392000000  3.8482736599999998
  4.8901278216000001  1.2428730392000000  2.3095461899999998
  2.2218010892000000  1.2428730392000000  0.7708187200000000
  4.0001700000000007  2.4988400000000000  0.7698487300000000
  4.0001700000000007  2.4988400000000000  3.8492436500000000
  1.3333900000000001  0.0000000000000000  2.3095461899999998
  3.1369379013567960  3.7473908621614980  5.4044945265387891
  0.4580925594709396  3.7469665510946690  6.9030332905631422
  3.0409725033816231  3.6768217399004453  8.3388010352433657
  4.9654769046851781  1.4457484893308865  8.2731336978094401
  2.2183154838794632  1.2231121061421562  6.9232052230237926
  4.8710805609605208  1.2325319633331946  5.3890256637673293
  1.3418228605274776  2.4895205685700459  5.3701081158128057
  1.3589005914699068  2.5107726902070295  8.4184498156808534
  4.0046825751450452 -0.0040107708411068  7.0062204051509678
  0.4449789108000001  8.7524869607999989  0.7708187200000000
  3.1102121784000003  8.7524869607999989  2.3095461899999998
  0.4449789108000001  8.7524869607999989  3.8482736599999998
  2.2218010892000000  6.2405530391999999  3.8482736599999998
  4.8901278216000001  6.2405530391999999  2.3095461899999998
  2.2218010892000000  6.2405530391999999  0.7708187200000000
  4.0001700000000007  7.4965200000000003  0.7698487300000000
  4.0001700000000007  7.4965200000000003  3.8492436500000000
  1.3333900000000001  4.9976799999999999  2.3095461899999998
  3.1303519949836947  8.7593108111239975  5.3898544961037249
  0.4577396775324238  8.7679021668444062  6.9239049774387249
  3.0467437277704734  8.5386108491849448  8.2721839760637224
  4.9665553126978672  6.3111053709601901  8.3428313481576630
  2.2160174125814520  6.2432417834177203  6.9062216828946559
  4.8686468015832931  6.2464864672984692  5.4052270549880204
  1.3303065785921697  7.5004347983207458  5.3690702987584853
  1.3130697492711736  7.4810560455826298  8.4175734173256700
  4.0044128386435967  4.9956951971367971  6.9575938746020851
  4.0136253370872250  4.9888124160866285  9.5111883366581331
