 W  N  H 
 1.0000000000000000
     5.7406499999999996    0.0000000000000000    0.0000000000000000
     0.0000000000000000   12.5425400000000007    0.0000000000000000
     0.0000000000000000    0.0000000000000000   34.8008000000000024
 W   N   H  
  12  24   1
Cartesian
  0.0767524905000109  4.1808675708999781  4.5776972320000384
  1.7377521614999860  0.0000000000000000  2.2223790879999408
  4.6080771614999856  2.0904024291000227  1.9617210960000384
  2.9453121111468832  4.2173024758760098  9.4648639539423254
  4.6185640674448596  0.1737202845661138  7.0677428158779669
  2.0220715158164073  1.9812406099067512  6.7617204078214552
  0.0767524905000109 10.4521375708999766  4.5776972320000384
  1.7377521614999860  6.2712700000000003  2.2223790879999408
  4.6080771614999856  8.3616724291000235  1.9617210960000384
  2.1485610827730319 11.8403645550366434  8.2526292225586104
  4.6475113865290663  6.3701885577432567  7.2194460044909787
  1.7538006475413843  8.4986523203557560  6.8784390357339635
  4.0373991449999922  2.9001488115000256  0.3935970480000592
  1.8746092574999855  4.9906139532999783  0.8846363359998922
  3.3809558174999825  0.8097463824000025  2.5122697519999688
  0.5106308174999827  1.2806560467000214  1.6718304320000106
  1.1670741449999924  5.4615236175999984  3.7905031359999204
  4.7449342574999847  3.3711211884999748  3.2994638480000873
  1.1509951742936209  2.8295336310224846  5.4330107754075696
  4.8387381305012775  5.1257489830328087  5.8961193816736799
  0.8300034216088064  0.5753631275830722  7.5657418150289750
  3.7917873930520529  1.5895452323294168  6.1994794516411007
  4.0593545235279311  5.4601076221010212  8.8225751178778946
  2.1701858073616207  3.2239170881406296  8.1652987328116300
  4.0373991449999922  9.1714188115000255  0.3935970480000592
  1.8746092574999855 11.2618839532999804  0.8846363359998922
  3.3809558174999825  7.0810163824000023  2.5122697519999688
  0.5106308174999827  7.5519260467000215  1.6718304320000106
  1.1670741449999924 11.7327936175999987  3.7905031359999204
  4.7449342574999847  9.6423911884999747  3.2994638480000873
  1.2105031845700593  9.0957252505541568  5.2522931191150368
  4.7983730727898939 11.2976886634863849  5.9468168439408737
  0.4835521709921170  7.3132772006269660  7.5493690023979854
  3.3660270503946355  7.5806395409439995  6.7101591876195279
  3.8082307405001319 12.4007584384223239  8.8024032476294956
  1.9648175501083598 10.0521478772107731  7.9590325272264897
  1.7217318087564515  5.0512876362514945 10.3363919044532153
