Co  N  H 
 1.0000000000000000
     4.3237399999999999    0.0000000000000000    0.0000000000000000
     0.0000000000000000    7.8388600000000004    0.0000000000000000
     0.0000000000000000    0.0000000000000000   27.1545999999999985
 Co  N   H  
  24   8   1
Cartesian
  0.0000000000000000  5.1959900000000001  1.1315299999999999
  0.0000000000000000  1.2765599999999999  3.3943200000000000
  0.0000000000000000  2.6428699999999998  1.1315299999999999
  0.0000000000000000  6.5622999999999996  3.3943200000000000
  2.1618700000000000  6.5622999999999996  0.3426900000000000
  2.1618700000000000  2.6428699999999998  2.6054800000000000
  0.0000000000000000  3.9194300000000002  3.3424600000000000
  0.0000000000000000  0.0000000000000000  1.0796699999999999
  2.1618700000000000  1.2765599999999999  0.3426900000000000
  2.1618700000000000  5.1959900000000001  2.6054800000000000
  2.1618700000000000  3.9194300000000002  0.3945600000000000
  2.1618700000000000  0.0000000000000000  2.6573500000000001
 -0.0381800000000000  5.2003000000000004  5.6253399999999996
 -0.0193400000000000  1.2688699999999999  7.8115199999999998
  0.0206100000000000  2.6610800000000001  5.6099100000000002
  0.0942500000000000  6.5564600000000004  7.8069199999999999
  2.1623299999999999  6.5608100000000000  4.8662700000000001
  2.1520100000000002  2.6486600000000000  7.1543000000000001
 -0.0362700000000000  3.8493200000000001  7.8186000000000000
 -0.0053300000000000 -0.0151100000000000  5.5972099999999996
  2.1599200000000001  1.2632500000000000  4.8221699999999998
  2.1215799999999998  5.1556899999999999  7.1516999999999999
  2.1589200000000002  3.9186500000000000  4.9176500000000001
  2.1768100000000001  0.0635000000000000  7.1548400000000001
  3.2427999999999999  2.6129300000000000  4.1313000000000004
  3.2427999999999999  6.5323599999999997  1.8685099999999999
  1.0809299999999999  5.2259300000000000  4.1313000000000004
  1.0809299999999999  1.3065000000000000  1.8685099999999999
  3.2912900000000000  2.5587200000000001  8.5790299999999995
  3.1861799999999998  6.5133000000000001  6.4576900000000004
  0.9305600000000001  5.1617300000000004  8.4513099999999994
  1.0940300000000001  1.3315200000000000  6.3498299999999999
  2.7841900000000002  1.3169000000000000  8.5678599999999996
