Co  N  H 
 1.0000000000000000
     4.3237399999999999    0.0000000000000000    0.0000000000000000
     0.0000000000000000    7.8388600000000004    0.0000000000000000
     0.0000000000000000    0.0000000000000000   27.1545999999999985
 Co  N   H  
  24   8   1
Cartesian
  0.0000000000000000  5.1959900000000001  1.1315299999999999
  0.0000000000000000  1.2765599999999999  3.3943200000000000
  0.0000000000000000  2.6428699999999998  1.1315299999999999
  0.0000000000000000  6.5622999999999996  3.3943200000000000
  2.1618700000000000  6.5622999999999996  0.3426900000000000
  2.1618700000000000  2.6428699999999998  2.6054800000000000
  0.0000000000000000  3.9194300000000002  3.3424600000000000
  0.0000000000000000  0.0000000000000000  1.0796699999999999
  2.1618700000000000  1.2765599999999999  0.3426900000000000
  2.1618700000000000  5.1959900000000001  2.6054800000000000
  2.1618700000000000  3.9194300000000002  0.3945600000000000
  2.1618700000000000  0.0000000000000000  2.6573500000000001
 -0.0263400000000000  5.1931700000000003  5.6210500000000003
 -0.0023300000000000  1.3429300000000000  7.8559200000000002
  0.0124000000000000  2.6643400000000002  5.6176300000000001
  0.0943200000000000  6.6070700000000002  7.8106799999999996
  2.1633900000000001  6.5648799999999996  4.8581599999999998
  2.1515200000000001  2.6286299999999998  7.2299600000000002
 -0.0239200000000000  3.9303300000000001  7.8422200000000002
 -0.0038200000000000 -0.0057200000000000  5.5929399999999996
  2.1591399999999998  1.2735700000000001  4.8373400000000002
  2.1436999999999999  5.1755399999999998  7.1736599999999999
  2.1539500000000000  3.9136299999999999  4.9380499999999996
  2.1680999999999999  0.0117200000000000  7.1073800000000000
  3.2427999999999999  2.6129300000000000  4.1313000000000004
  3.2427999999999999  6.5323599999999997  1.8685099999999999
  1.0809299999999999  5.2259300000000000  4.1313000000000004
  1.0809299999999999  1.3065000000000000  1.8685099999999999
  3.3300100000000001  2.6259999999999999  8.5339100000000006
  3.2168800000000002  6.5043300000000004  6.4348400000000003
  0.9600800000000000  5.2531699999999999  8.4775100000000005
  1.0908599999999999  1.3253999999999999  6.3670999999999998
  1.1660900000000001  2.3921700000000001  8.4795999999999996
