Fe  N Fe  N Fe  N Fe  N  H 
 1.0000000000000000
     5.0789200000000001    0.0000000000000000    0.0000000000000000
    -3.8071662954973400    9.4173880807806292    0.0000000000000000
     0.0000000000000000    0.0000000000000000   33.5491000000000028
 Fe  N   Fe  N   Fe  N   Fe  N   H  
   8   1   8   1   8   1   8   1   1
Cartesian
  1.9035634383345288  0.4288207662583459  3.1452281250000000
  3.6606273908245761  2.6689348690336345  3.3317611210000000
  1.4182663299565683  4.1810848731645800  0.8618763790000001
  4.4430387548861052  0.3819221736160584  3.1163758990000003
  0.9952575425190913  2.8007312152241592  3.1163758990000003
 -0.9952838217379462  4.0492885269740544  1.0772616010000000
  2.5394381136437101  1.7594035281918410  1.0772616010000000
 -0.0000065698047139  1.7125049355495536  1.0484093750000001
  2.5394468603905724  3.4250098710991073  2.0968187500000002
  3.7774049309439444  2.5982968704257212  7.2500335882484590
  2.4185467199924879  0.0785645089181621  7.5546004749504299
  0.1874684245279012  1.5881723295533174  5.0239329390534238
  1.2318711543759677  2.6032381054341411  7.1386258724424030
  4.7246097548721586  0.2274775934918653  7.1366663932839138
  2.8279694626971215  1.4611675299404316  5.2661302749643104
 -0.6020908803192893  3.8921019122111038  5.2783449635748729
  1.9247017095180130  3.8497947056146913  5.1918517996501290
  1.2770177939885490  0.8609678151900824  6.3543748947574494
 -0.0000197094141412  5.1375148066486602  3.1452281250000000
  1.7570442430759061  7.3776289094239491  3.3317611210000000
 -0.4853168177921017  8.8897789135548955  0.8618763790000001
  2.5394556071374352  5.0906162140063733  3.1163758990000003
 -0.9083256052295787  7.5094252556144738  3.1163758990000003
 -2.8988669694866163  8.7579825673643690  1.0772616010000000
  0.6358549658950401  6.4680975685821558  1.0772616010000000
 -1.9035897175533840  6.4211989759398680  1.0484093750000001
  0.6358637126419024  8.1337039114894214  2.0968187500000002
  1.8655250043669347  7.2876174807850616  7.2840674400075462
  0.5226313962708833  4.8113367090913730  7.5507224245554134
 -1.7254404142077724  6.2965147723032455  5.0230564559143298
 -0.6773955263769412  7.3062624290164555  7.1162035597537043
  2.8330680442312817  4.9568755456710969  7.1636532139618172
  0.9135694847889403  6.1737964470903677  5.2501002964359147
 -2.5148438918572356  8.6029621750412755  5.2724934984962113
  0.0103120780108593  8.5612991336131543  5.1881497308151348
 -0.6407298093021389  5.5459786475259545  6.3383913671226191
  1.8225764088251575  5.5513268992083997  8.4071380360653016
