 V  N  H 
 1.0000000000000000
     4.5220399999999996    0.0000000000000000    0.0000000000000000
     0.0000000000000000    8.4693600000000000    0.0000000000000000
     0.0000000000000000    0.0000000000000000   29.3386999999999993
 V   N   H  
  24  12   1
Cartesian
  1.1110199999999999  7.0446400000000002  4.5014399999999997
  1.1110199999999999  2.8099599999999998  2.0563500000000001
  3.4110200000000002  4.2346800000000000  2.8790100000000001
  3.4110200000000002  0.0000000000000000  0.4342100000000000
  3.4110200000000002  2.8099599999999998  0.4113300000000000
  3.4110200000000002  7.0446400000000002  2.8561200000000002
  1.1110199999999999  1.4247200000000000  4.5014399999999997
  1.1110199999999999  5.6593999999999998  2.0563500000000001
  1.1110199999999999  4.2346800000000000  4.4785500000000003
  1.1110199999999999  0.0000000000000000  2.0334699999999999
  3.4110200000000002  5.6593999999999998  0.4113300000000000
  3.4110200000000002  1.4247200000000000  2.8561200000000002
  1.1538900000000001  7.1166000000000000  9.0025499999999994
  1.1329400000000001  2.8094199999999998  6.9154900000000001
  3.4468200000000002  4.2190300000000001  7.7990000000000004
  3.4098700000000002 -0.0076900000000000  5.3010299999999999
  3.4201999999999999  2.8084899999999999  5.2930000000000001
  3.4227900000000000  6.9958000000000000  7.7085200000000000
  1.0047100000000000  1.4967900000000001  9.1405600000000007
  1.1400500000000000  5.6391000000000000  6.9090400000000001
  1.1836400000000000  4.1748900000000004  9.1347299999999994
  1.1170700000000000 -0.0250300000000000  6.8806099999999999
  3.4234499999999999  5.6413599999999997  5.2909800000000002
  3.3812000000000002  1.4051400000000001  7.7053099999999999
  0.0000000000000000  4.2346800000000000  1.2339899999999999
  0.0000000000000000  0.0000000000000000  3.6787800000000002
  2.2610199999999998  2.8230900000000001  3.6787800000000002
  2.2610199999999998  7.0577699999999997  1.2339899999999999
  2.2610199999999998  5.6462700000000003  3.6787800000000002
  2.2610199999999998  1.4115899999999999  1.2339899999999999
  0.0004600000000000  4.2254300000000002  6.1266499999999997
 -0.1194900000000000  0.0091300000000000  8.6075999999999997
  2.3727800000000001  2.7761999999999998  8.6240400000000008
  2.2869400000000000  7.0469900000000001  6.0956599999999996
  2.3497400000000002  5.6431399999999998  8.6556099999999994
  2.2681000000000000  1.4030600000000000  6.0932399999999998
  0.4748600000000000  2.8784500000000000 10.2268100000000004
