Mo Ni Mo Ni Mo Ni  H 
 1.0000000000000000
     5.4890396115576783    0.0000000000000000    0.0000000000000000
    -2.7445198057788391    4.7536476635990876    0.0000000000000000
     0.0000000000000000    0.0000000000000000   24.4817802675002838
 Mo  Ni  Mo  Ni  Mo  Ni  H  
   3   1   3   1   3   1   1
Cartesian
  0.0000000000000000  0.0000000000000000  9.9999992923310419
 -1.3722598028894266  2.3768237317995511  9.9999992923310419
  1.3722598028894266  2.3768237317995511  9.9999992923310419
  2.7445197057788460  0.0000000000000000  9.9999992923310419
  2.7445197057788460  1.5845491878663647 12.2408902337501360
  1.3722598028894266  3.9613729196659158 12.2408902337501360
 -1.3722598028894266  3.9613729196659158 12.2408902337501360
  0.0000000000000000  1.5845491878663647 12.2408902337501360
  0.0000958999932135  3.1386940778843475 14.3940971813743523
  1.3459197047534339  0.8074720428577060 14.3942606813627823
  4.1432148067975287  0.8074085428621998 14.3941886813678774
  2.7445660057755696  3.1690363757371172 14.4704811759688940
  2.7444927057807571  3.1690785757341309 15.9805235691078735
