Ti  N  H 
 1.0000000000000000
     5.6618000000000004    0.0000000000000000    0.0000000000000000
     3.2879366220000001    4.6092789040000000    0.0000000000000000
     0.0000000000000000    0.0000000000000000   34.2956999999999965
 Ti  N   H  
  18  12   1
Cartesian
  2.7784100000000000  1.7760899999999999  1.5793200000000001
  7.5998599999999996  4.3495900000000001  0.1944600000000000
  6.8331499999999998  3.8643299999999998  3.0969000000000002
  4.0022700000000002  3.4386100000000002  3.7227999999999999
  5.6093500000000001  1.2599899999999999  2.3379400000000001
  4.7690000000000001  3.8334899999999998  0.9534200000000000
  6.0663700000000000  3.4694500000000001  5.8662799999999997
  1.9380800000000000  1.4336700000000000  4.4814200000000000
  1.1543800000000000  0.9622500000000000  7.3542399999999999
  3.9724900000000001  0.5599900000000000  8.0055599999999991
  3.2323800000000000  2.9623499999999998  6.6027399999999998
  4.7690200000000003  0.9175700000000000  5.2403800000000000
  0.3717000000000000  0.5782500000000000 10.0749999999999993
  5.1944299999999997  3.1422500000000002  8.7505299999999995
  4.3564699999999998  2.8236100000000000 11.5035799999999995
  1.7708699999999999  2.2629700000000001 12.1198599999999992
  3.1531099999999999  0.0652900000000000 10.9304000000000006
  2.3360400000000001  2.6519699999999999  9.4224300000000003
  1.8245800000000001  0.3429800000000000  2.7268500000000002
  2.8919999999999999  3.8086500000000001  1.9490200000000000
  4.6554700000000002  1.8009400000000000  0.5833700000000001
  5.7228500000000002  2.3506900000000002  4.0925099999999999
  5.0987900000000002  2.0540099999999999  6.9957900000000004
  2.8919600000000001  0.8927300000000000  6.2359900000000001
  7.9434300000000002  3.4942899999999999  4.8703300000000000
  3.3203000000000000  4.0764500000000004  8.3303999999999991
  2.6537899999999999  3.8167900000000001 11.2671299999999999
  6.1347699999999996  2.5696900000000000 10.5281300000000009
  2.2521700000000000  0.6049800000000000  9.1381599999999992
  3.4706700000000001  1.4497700000000000 12.4177400000000002
  5.1737500000000001  4.3071299999999999 12.2830200000000005
