Au Sn Au Sn Au Sn  H 
 1.0000000000000000
     6.1257125665023064    0.0000000000000000    0.0000000000000000
    -3.0628567832511182    5.3050226245799905    0.0000000000000000
     0.0000000000000000    0.0000000000000000   25.0016222307126803
 Au  Sn  Au  Sn  Au  Sn  H  
   3   1   3   1   3   1   1
Cartesian
  0.0000000000000000  0.0000000000000000  9.9999992751346518
 -1.5314283916255591  2.6525113122899953  9.9999992751346518
  1.5314278916255941  2.6525113122899953  9.9999992751346518
  3.0628562832511532  0.0000000000000000  9.9999992751346518
  3.0628561196473543  1.7683408730916561 12.5008111153563402
  1.5314277280217952  4.4208521853816514 12.5008111153563402
 -1.5314285552293578  4.4208521853816514 12.5008111153563402
 -0.0000001636037987  1.7683408730916561 12.5008111153563402
  0.0139270014070130  3.6298323254519773 15.1930406757202778
  1.6497806325222588  0.8158360395894050 15.1583767015476845
  4.5205445016130916  0.8255732441611202 15.1930858786532710
  3.0892857057677565  3.5214140502204496 15.0316480287554484
  0.0211225563725019  1.7561370717255291 15.5695598311725210
