La  H 
 1.0000000000000000
     7.4683264714896822    0.0000000000000000    0.0000000000000000
     3.7341637357448052    6.4677605422966318    0.0000000000000000
     0.0000000000000000    0.0000000000000000   26.0978611531352485
 La  H  
  12   1
Cartesian
  1.8670817049399111  1.0779600925386921  9.9999991182543813
  5.6012449406847526  1.0779600925386921  9.9999991182543813
  3.7341635728123137  4.3118403636870077  9.9999991182543813
  7.4683268085571548  4.3118403636870077  9.9999991182543813
  7.4683266344221737  2.1559201786096236 13.0489305765676242
  3.7341633986773326  2.1559201786096236 13.0489305765676242
  9.3354085022945767  5.3898004497579395 13.0489305765676242
  5.6012452665497356  5.3898004497579395 13.0489305765676242
  0.0305260724796835 -0.0320997025397555 16.0630378057960961
  3.7036076248046168 -0.0321058792510734 16.0630565962561249
  1.8670757485518916  3.1498602521929233 16.0676718725117524
  5.6012428413764948  3.3390525123910804 16.0883842051351884
  1.8670810026977820 -0.0358555569577094 17.4954620288525504
