Au Pb Au Pb Au Pb  H 
 1.0000000000000000
     6.2536035574518580    0.0000000000000000    0.0000000000000000
    -3.1268017787259290    5.4157796167420607    0.0000000000000000
     0.0000000000000000    0.0000000000000000   25.1060442233230567
 Au  Pb  Au  Pb  Au  Pb  H  
   3   1   3   1   3   1   1
Cartesian
  0.0000000000000000  0.0000000000000000  9.9999993204029103
 -1.5634008893629645  2.7078898083710303  9.9999993204029103
  1.5634008893629645  2.7078898083710303  9.9999993204029103
  3.1268017787259290  0.0000000000000000  9.9999993204029103
  3.1268017818527309  1.8052598704420937 12.5530221116615284
  1.5634008924897662  4.5131496788131242 12.5530221116615284
 -1.5634008862361630  4.5131496788131242 12.5530221116615284
  0.0000000031268017  1.8052598704420937 12.5530221116615284
 -0.1855179053973151  3.3716548366228962 15.4056924448876664
  1.2642517648333049  0.8610255452243306 15.4060913548243335
  4.5825074632573353  0.8408622998433209 15.0245669771939383
  2.9307681669150045  3.4962700788232817 15.1970877795866404
 -0.4007906410022906  5.1849448730550201 15.6373343410498826
