Cu Au Cu Au Cu Au Cu  H 
 1.0000000000000000
     5.5343739038823028    0.0000000000000000    0.0000000000000000
     2.4768260250739664    4.9492024135292114    0.0000000000000000
     0.0000000000000000    0.0000000000000000   24.5745626984776848
 Cu  Au  Cu  Au  Cu  Au  Cu  H  
   1   2   2   2   2   2   1   1
Cartesian
  0.0000000000000000  0.0000000000000000 10.0000000000000000
  1.2384137690000001  2.4746019520000000 10.0000000000000000
  2.7671869259999999  0.0000000000000000 10.0000000000000000
  4.0056006960000001  2.4746019520000000 10.0000000000000000
  5.5343738519999999  3.4190558119999999 12.2872826079999999
  4.2959600829999998  0.9444538600000000 12.2872826079999999
  2.7671869259999999  3.4190558119999999 12.2872826079999999
  1.5287731570000000  0.9444538600000000 12.2872826079999999
  3.0574966159999999  1.8889015339999999 14.4658890749999998
  4.3856612510000001  4.3611462379999999 14.6380780690000005
  5.8627298710000000  1.9703429420000000 14.6381407790000004
  7.0542242679999996  4.3579525459999999 14.5206525549999999
  0.3896145310000000  0.2410082030000000 15.3678606119999994
