Ti  N  H 
 1.0000000000000000
     5.6618000000000004    0.0000000000000000    0.0000000000000000
     0.0000000000000000    5.1846600000000000    0.0000000000000000
     0.0000000000000000    0.0000000000000000   38.1120999999999981
 Ti  N   H  
  24  16   1
Cartesian
  3.5164300000000002  1.6746500000000000  5.7168099999999997
  0.2285100000000000  4.2669800000000002  1.9056000000000000
  0.9952900000000000  1.7550100000000000  0.6745800000000000
  4.2832100000000004  4.3473400000000000  4.4857899999999997
  2.7497099999999999  4.3473400000000000  6.9478400000000002
  5.1235299999999997  1.7550100000000000  3.1366299999999998
  3.8261900000000000  0.8373200000000000  0.6745800000000000
  1.4523100000000000  3.4296500000000001  4.4857899999999997
  5.5806100000000001  3.4296500000000001  6.9478400000000002
  2.2926299999999999  0.8373200000000000  3.1366299999999998
  3.0594100000000002  3.5100099999999999  1.9056000000000000
  0.6855300000000000  0.9176800000000001  5.7168099999999997
  4.4405599999999996  1.6518600000000001 13.3466000000000005
  1.1417700000000000  4.2440499999999997  9.5051799999999993
  1.9092400000000000  1.7376700000000000  8.2792399999999997
  5.2044699999999997  4.2912400000000002 12.0431799999999996
  3.7033999999999998  4.2110799999999999 14.3561300000000003
  0.3806000000000000  1.7307100000000000 10.7315600000000000
  4.7400200000000003  0.8186200000000000  8.2857400000000005
  2.3700000000000001  3.3878400000000002 12.0422300000000000
  0.8900900000000000  3.5048499999999998 14.3613599999999995
  3.2058399999999998  0.7947200000000000 10.7359600000000004
  3.9755799999999999  3.4826999999999999  9.5030099999999997
  1.6170199999999999  0.8632400000000000 13.3905999999999992
  5.2371100000000004  2.5923300000000000  5.0250800000000000
  1.9491300000000000  0.0000000000000000  1.2138700000000000
  1.7958099999999999  2.5923300000000000  6.4085500000000000
  4.1696900000000001  0.0000000000000000  2.5973400000000000
  4.7800300000000000  2.5923300000000000  1.2138700000000000
  2.4062100000000002  0.0000000000000000  5.0250800000000000
  1.3387899999999999  2.5923300000000000  2.5973400000000000
  4.6267100000000001  0.0000000000000000  6.4085500000000000
  0.5232400000000000  2.5274399999999999 12.6210699999999996
  2.8604300000000000 -0.0200200000000000  8.8186400000000003
  2.7254900000000002  2.4838900000000002 14.1089599999999997
  5.0826799999999999 -0.0190500000000000 10.1884300000000003
  0.0314200000000000  2.5703399999999998  8.8143100000000008
  3.3379599999999998 -0.0222200000000000 12.6026000000000007
  2.2530500000000000  2.5527700000000002 10.1833399999999994
  5.5141499999999999  0.0035800000000000 14.0736699999999999
  2.1061800000000002  4.9153700000000002 15.0589499999999994
