 V  N  V  N  V  N  V  N  H 
 1.0000000000000000
     4.8897899999999996    0.0000000000000000    0.0000000000000000
     0.0000000000000000    9.0440799999999992    0.0000000000000000
     0.0000000000000000    0.0000000000000000   33.8774000000000015
 V   N   V   N   V   N   V   N   H  
   6   3   6   3   6   3   6   3   1
Cartesian
  4.4899029737999996  3.4110199924000000  0.6924540560000000
  2.8447820261999994  1.1110200075999996  0.6924540560000000
  0.4226734476000000  1.1110200075999996  2.1173375000000001
  2.0222215523999996  3.4110199924000000  2.1173375000000001
  4.4899029737999996  3.4110199924000000  3.5422209440000003
  2.8447820261999994  1.1110200075999996  3.5422209440000003
  3.6673424999999997  0.0000000000000000  2.1173375000000001
  1.2224474999999999  2.2610199999999994  3.5290087580000002
  1.2224474999999999  2.2610199999999994  0.7056662420000001
  2.0346556484147458  3.4220637342835225  4.9175868980444131
  0.4102393515852543  1.0999762657164733  4.9175868980444131
  2.8689354487342809  1.1753456865658189  6.3843212989704163
  4.4657495512657270  3.3466943134341789  6.3843212989704163
  2.0752013141605072  3.2344450466527306  7.5338222647088307
  0.3696936858394946  1.2875949533472686  7.5338222647088307
  1.2330110663834475 -0.0064469799871630  6.3776734457261197
  3.6673424999999997  2.2610199999999994  8.0415677320743164
  3.6673424999999997  2.2610199999999994  4.9343666608437324
  4.4899029737999996  7.9330599923999996  0.6924540560000000
  2.8447820261999994  5.6330600075999993  0.6924540560000000
  0.4226734476000000  5.6330600075999993  2.1173375000000001
  2.0222215523999996  7.9330599923999996  2.1173375000000001
  4.4899029737999996  7.9330599923999996  3.5422209440000003
  2.8447820261999994  5.6330600075999993  3.5422209440000003
  3.6673424999999997  4.5220399999999996  2.1173375000000001
  1.2224474999999999  6.7830599999999990  3.5290087580000002
  1.2224474999999999  6.7830599999999990  0.7056662420000001
  2.0378342099011038  7.9547782889509282  4.9169224401848934
  0.4070607900988940  5.6113417110490706  4.9169224401848934
  2.8557663355133904  5.6917890954912371  6.3585318944854263
  4.4789186644866072  7.8743309045087617  6.3585318944854263
  2.1267552802984144  7.7641565503232295  7.5689949576773827
  0.3181397197015847  5.8019634496767685  7.5689949576773854
  1.2118839336165523  4.5284869799871563  6.3776734457261197
  3.6673424999999997  6.7830599999999990  7.8999844724941433
  3.6673424999999997  6.7830599999999990  4.9208220967732625
  3.6673424999999997  2.2610199999999994  9.0815797287056164
