Re  N  H 
 1.0000000000000000
     4.0595499999999998    0.0000000000000000    0.0000000000000000
     0.0000000000000000    8.1190999999999995    0.0000000000000000
     0.0000000000000000    0.0000000000000000   32.4763999999999982
 Re  N   H  
  12  12   1
Cartesian
  2.0297700000000001  0.0000000000000000  1.0148900000000001
  0.0000000000000000  2.0297700000000001  1.0148900000000001
  2.0297700000000001  2.0297700000000001  3.0446599999999999
  2.0297700000000001  0.0048500000000000  5.1759500000000003
  0.0000000000000000  2.0297700000000001  5.0858800000000004
  2.0297700000000001  2.0297700000000001  7.0275900000000000
  2.0297700000000001  4.0595499999999998  1.0148900000000001
  0.0000000000000000  6.0893199999999998  1.0148900000000001
  2.0297700000000001  6.0893199999999998  3.0446599999999999
  2.0297700000000001  4.0547000000000004  5.1759500000000003
  0.0000000000000000  6.0893199999999998  5.1695000000000002
  2.0297700000000001  6.0893199999999998  7.0554699999999997
  0.0000000000000000  2.0297700000000001  3.0446599999999999
  2.0297700000000001  0.0000000000000000  3.0446599999999999
  0.0000000000000000  0.0000000000000000  1.0148900000000001
  0.0000000000000000  2.0297700000000001  7.2821699999999998
  2.0297700000000001  0.0031900000000000  7.1356099999999998
  0.0000000000000000  0.0030800000000000  5.0852000000000004
  0.0000000000000000  6.0893199999999998  3.0446599999999999
  2.0297700000000001  4.0595499999999998  3.0446599999999999
  0.0000000000000000  4.0595499999999998  1.0148900000000001
  0.0000000000000000  6.0893199999999998  7.1488199999999997
  2.0297700000000001  4.0563599999999997  7.1356099999999998
  0.0000000000000000  4.0564700000000000  5.0852000000000004
  0.0000000000000000  2.0297700000000001  8.3281600000000005
