Re  N  H 
 1.0000000000000000
     4.0595499999999998    0.0000000000000000    0.0000000000000000
     0.0000000000000000    5.7410699999999997    0.0000000000000000
     0.0000000000000000    0.0000000000000000   28.7054000000000009
 Re  N   H  
  12  12   1
Cartesian
  0.0000000000000000  2.8705300000000000  5.0234399999999999
  0.0000000000000000  0.0000000000000000  2.1529099999999999
  2.0297700000000001  4.3057999999999996  0.7176300000000000
  2.0297700000000001  1.4352700000000000  3.5881799999999999
  2.0297700000000001  1.4352700000000000  0.7176300000000000
  2.0297700000000001  4.3057999999999996  3.5881799999999999
  0.0417400000000000  2.8804799999999999 10.5140300000000000
  0.0124800000000000  5.6969200000000004  7.8963500000000000
  2.0409099999999998  4.3055800000000000  6.5506000000000002
  2.0488400000000002  1.6685200000000000  9.2906999999999993
  2.0346899999999999  1.3663200000000000  6.4580399999999996
  2.0366499999999998  4.6597799999999996  9.6633099999999992
  2.0297700000000001  2.8705300000000000  2.1529099999999999
  2.0297700000000001  0.0000000000000000  5.0234399999999999
  0.0000000000000000  1.4352700000000000  0.7176300000000000
  0.0000000000000000  4.3057999999999996  3.5881799999999999
  0.0000000000000000  4.3057999999999996  0.7176300000000000
  0.0000000000000000  1.4352700000000000  3.5881799999999999
  2.0398900000000002  2.9123600000000001  7.8581500000000002
  2.0496200000000000  0.1637100000000000 10.8693700000000000
  0.0034700000000000  1.4182500000000000  6.4547499999999998
  0.0062700000000000  4.4139999999999997  9.4558700000000009
  0.0076300000000000  4.2935800000000004  6.4520499999999998
  4.0541799999999997  1.4152400000000001  9.3120799999999999
  0.5173200000000000  3.0410499999999998 12.1399100000000004
