Cr  N  H 
 1.0000000000000000
     4.7742599999999999    0.0000000000000000    0.0000000000000000
     0.0000000000000000    8.7775599999999994    0.0000000000000000
     0.0000000000000000    0.0000000000000000   33.0771000000000015
 Cr  N   H  
  24  12   1
Cartesian
  1.2268399999999999  3.2788599999999999  3.4456400000000000
  3.5640800000000001  3.2788599999999999  2.0960999999999999
  1.1769499999999999  3.2788599999999999  0.6602200000000000
  2.0059100000000001  1.1099200000000000  2.0960999999999999
  4.3431400000000000  1.1099200000000000  3.4456400000000000
  4.3930400000000001  1.1099200000000000  0.6602200000000000
  3.6616399999999998  3.3893900000000001  7.4240800000000000
  1.2121100000000000  3.3047599999999999  6.1801000000000004
  3.5676899999999998  3.2627400000000000  4.7888700000000002
  4.4195799999999998  1.0644800000000001  6.2641400000000003
  2.0072199999999998  0.7956000000000000  7.2710400000000002
  2.0009299999999999  1.1103499999999999  4.7953299999999999
  1.2268399999999999  7.6676399999999996  3.4456400000000000
  3.5640800000000001  7.6676399999999996  2.0960999999999999
  1.1769499999999999  7.6676399999999996  0.6602200000000000
  2.0059100000000001  5.4987000000000004  2.0960999999999999
  4.3431400000000000  5.4987000000000004  3.4456400000000000
  4.3930400000000001  5.4987000000000004  0.6602200000000000
  3.5626000000000002  7.9817700000000000  7.2711399999999999
  1.1502699999999999  7.7130400000000003  6.2641900000000001
  3.5691000000000002  7.6672799999999999  4.7952199999999996
  4.3578799999999998  5.4728000000000003  6.1801000000000004
  1.9084000000000001  5.3883700000000001  7.4241200000000003
  2.0023000000000000  5.5148799999999998  4.7887899999999997
  2.7849699999999999  0.0000000000000000  3.4456400000000000
  0.3978400000000000  2.1943899999999998  2.0673200000000000
  2.7849699999999999  2.1943899999999998  0.6889999999999999
  0.3977900000000000 -0.0000100000000000  7.8942899999999998
  2.7870100000000000  2.1830799999999999  6.2322199999999999
  0.3920400000000000  2.1863000000000001  4.8129900000000001
  2.7849699999999999  4.3887799999999997  3.4456400000000000
  0.3978400000000000  6.5831700000000000  2.0673200000000000
  2.7849699999999999  6.5831700000000000  0.6889999999999999
  0.3979800000000000  4.3888400000000001  7.6241099999999999
  2.7829999999999999  6.5945700000000000  6.2319500000000003
  0.4036700000000000  6.5912699999999997  4.8129499999999998
  0.3977500000000000  0.0000200000000000  8.9288799999999995
