Re  N  H 
 1.0000000000000000
     4.0595499999999998    0.0000000000000000    0.0000000000000000
     0.0000000000000000    8.1190999999999995    0.0000000000000000
     0.0000000000000000    0.0000000000000000   32.4763999999999982
 Re  N   H  
  12  12   1
Cartesian
  2.0297700000000001  0.0000000000000000  1.0148900000000001
  0.0000000000000000  2.0297700000000001  1.0148900000000001
  2.0297700000000001  2.0297700000000001  3.0446599999999999
  2.0297700000000001 -0.0038200000000000  5.2071600000000000
  0.0000000000000000  2.0297700000000001  5.1942899999999996
  2.0297700000000001  2.0297700000000001  7.0991799999999996
  2.0297700000000001  4.0595499999999998  1.0148900000000001
  0.0000000000000000  6.0893199999999998  1.0148900000000001
  2.0297700000000001  6.0893199999999998  3.0446599999999999
  2.0297700000000001  4.0633699999999999  5.2071600000000000
  0.0000000000000000  6.0893199999999998  5.1877199999999997
  2.0297700000000001  6.0893199999999998  7.0698200000000000
  0.0000000000000000  2.0297700000000001  3.0446599999999999
  2.0297700000000001  0.0000000000000000  3.0446599999999999
  0.0000000000000000  0.0000000000000000  1.0148900000000001
  0.0000000000000000  2.0297700000000001  7.1588900000000004
  2.0297700000000001 -0.0108800000000000  7.1536499999999998
  0.0000000000000000  0.0003400000000000  5.1105600000000004
  0.0000000000000000  6.0893199999999998  3.0446599999999999
  2.0297700000000001  4.0595499999999998  3.0446599999999999
  0.0000000000000000  4.0595499999999998  1.0148900000000001
  0.0000000000000000  6.0893199999999998  7.1519800000000000
  2.0297700000000001  4.0704300000000000  7.1536499999999998
  0.0000000000000000  4.0592100000000002  5.1105600000000004
  2.0297700000000001  2.0297700000000001  8.7737599999999993
