Os  N Os  N Os  N Os  N Os  N Os  N  H 
 1.0000000000000000
     4.9513100000000003    0.0000000000000000    0.0000000000000000
     0.0000000000000000    9.7084200000000003    0.0000000000000000
     0.0000000000000000    0.0000000000000000   28.0258000000000003
 Os  N   Os  N   Os  N   Os  N   Os  N   Os  N   H  
   2   4   2   4   2   4   2   4   2   4   2   4   1
Cartesian
  0.0000000000000000  2.4271050000000001  0.7006450000000001
  0.0000000000000000  0.0000000000000000  2.1019350000000001
  3.0532748246000003  2.4271050000000001  0.7006450000000001
  3.0532748246000003  0.0000000000000000  2.1019350000000001
  1.8980351754000002  2.4271050000000001  0.7006450000000001
  1.8980351754000002  0.0000000000000000  2.1019350000000001
  0.0000000000000000  2.4271050000000001  3.5032250000000000
  0.0186357810356827 -0.0381278862033075  4.8670282673768508
  3.0532748246000003  2.4271050000000001  3.5032250000000000
  3.0688697683266910 -0.0230800374334316  4.8791634940104549
  1.8980351754000002  2.4271050000000001  3.5032250000000000
  1.9194692255259687 -0.0235093754364313  4.8745032270019246
  0.0297226726830565  2.4271050000000001  6.2987304968116211
  0.0308592250776829  0.0735976381327908  7.4995171829346647
  3.0818779009574606  2.4271050000000001  6.3518169627048469
  3.1039726136622572  0.0703411569724680  7.7798978572743769
  1.9294169380919410  2.4271050000000001  6.3485217411391082
  1.9123151319929625  0.0704923600822119  7.7824265412969309
  0.0000000000000000  7.2813150000000002  0.7006450000000001
  0.0000000000000000  4.8542100000000001  2.1019350000000001
  3.0532748246000003  7.2813150000000002  0.7006450000000001
  3.0532748246000003  4.8542100000000001  2.1019350000000001
  1.8980351754000002  7.2813150000000002  0.7006450000000001
  1.8980351754000002  4.8542100000000001  2.1019350000000001
  0.0000000000000000  7.2813150000000002  3.5032250000000000
  0.0186357810356828  4.8923378862033120  4.8670282673768526
  3.0532748246000003  7.2813150000000002  3.5032250000000000
  3.0688697683266910  4.8772900374334194  4.8791634940104549
  1.8980351754000002  7.2813150000000002  3.5032250000000000
  1.9194692255259687  4.8777193754364356  4.8745032270019246
  0.0289829093042301  7.2813150000000002  6.3639681226527296
  0.0308592250776830  4.7806123618672078  7.4995171829346647
  3.0786221894814330  7.2813150000000002  6.3878518710071850
  3.1039726136622572  4.7838688430275367  7.7798978572743769
  1.9308334120775077  7.2813150000000002  6.3844946785429864
  1.9123151319929605  4.7837176399177759  7.7824265412969309
  0.0444867575639036  7.2813150000000020  8.0384025781023709
