Os  N Os  N Os  N Os  N Os  N Os  N  H 
 1.0000000000000000
     4.9513100000000003    0.0000000000000000    0.0000000000000000
     0.0000000000000000    9.7084200000000003    0.0000000000000000
     0.0000000000000000    0.0000000000000000   28.0258000000000003
 Os  N   Os  N   Os  N   Os  N   Os  N   Os  N   H  
   2   4   2   4   2   4   2   4   2   4   2   4   1
Cartesian
  0.0000000000000000  2.4271050000000001  0.7006450000000001
  0.0000000000000000  0.0000000000000000  2.1019350000000001
  3.0532748246000003  2.4271050000000001  0.7006450000000001
  3.0532748246000003  0.0000000000000000  2.1019350000000001
  1.8980351754000002  2.4271050000000001  0.7006450000000001
  1.8980351754000002  0.0000000000000000  2.1019350000000001
  0.0000000000000000  2.4271050000000001  3.5032250000000000
  0.0000000000000000  0.0339953747359107  4.8674832062160380
  3.0532748246000003  2.4271050000000001  3.5032250000000000
  3.0504809247675122  0.0192139785026357  4.8769690417093958
  1.8980351754000002  2.4271050000000001  3.5032250000000000
  1.9008290752324946  0.0192139785026360  4.8769690417093958
  0.0000000000000000  2.4271050000000001  6.3537378122181307
 -0.0000000000000001 -0.0696116719384371  7.5007276062984243
  3.0496226407220886  2.4271050000000001  6.3734139012503039
  3.0714542048962086 -0.0635790684470637  7.7854096587062864
  1.9016873592779127  2.4271050000000001  6.3734139012503039
  1.8798557951037824 -0.0635790684470639  7.7854096587062864
  0.0000000000000000  7.2813150000000002  0.7006450000000001
  0.0000000000000000  4.8542100000000001  2.1019350000000001
  3.0532748246000003  7.2813150000000002  0.7006450000000001
  3.0532748246000003  4.8542100000000001  2.1019350000000001
  1.8980351754000002  7.2813150000000002  0.7006450000000001
  1.8980351754000002  4.8542100000000001  2.1019350000000001
  0.0000000000000000  7.2813150000000002  3.5032250000000000
  0.0000000000000000  4.8202146252640832  4.8674832062160380
  3.0532748246000003  7.2813150000000002  3.5032250000000000
  3.0504809247675122  4.8349960214973615  4.8769690417093958
  1.8980351754000002  7.2813150000000002  3.5032250000000000
  1.9008290752324970  4.8349960214973615  4.8769690417093958
  0.0000000000000000  7.2813150000000002  6.3199928427652443
 -0.0000000000000000  4.9238216719384216  7.5007276062984420
  3.0520634360457226  7.2813150000000002  6.3734431516541035
  3.0714542048962117  4.9177890684470595  7.7854096587062864
  1.8992465639542866  7.2813150000000002  6.3734431516541035
  1.8798557951037824  4.9177890684470595  7.7854096587062864
  4.9513099999999985  2.4271050000000001  8.0313353712912967
