Cr  N  H 
 1.0000000000000000
     4.3887799999999997    0.0000000000000000    0.0000000000000000
     0.0000000000000000    8.2692700000000006    0.0000000000000000
     0.0000000000000000    0.0000000000000000   28.6456000000000017
 Cr  N   H  
  24  12   1
Cartesian
  1.1099200000000000  1.3493800000000000  0.3646600000000000
  1.1099200000000000  5.4840099999999996  2.7517000000000000
  1.1099200000000000  6.9198899999999997  0.3646600000000000
  1.1099200000000000  2.7852600000000001  2.7517000000000000
  1.1099200000000000  4.1346400000000001  0.4145000000000000
  1.1099200000000000  0.0000000000000000  2.8015400000000001
  3.2788599999999999  4.1346400000000001  3.5308600000000001
  3.2788599999999999  0.0000000000000000  1.1435299999999999
  3.2788599999999999  2.7852600000000001  1.1936599999999999
  3.2788599999999999  6.9198899999999997  3.5807000000000002
  3.2788599999999999  5.4840099999999996  1.1936599999999999
  3.2788599999999999  1.3493800000000000  3.5807000000000002
  1.0883300000000000  1.3816400000000000  5.1464999999999996
  1.1237800000000000  5.5334500000000002  7.5740600000000002
  1.0916900000000000  6.8933900000000001  5.1406999999999998
  1.1167899999999999  2.7178900000000001  7.5673300000000001
  1.1203900000000000  4.1334700000000000  5.2149799999999997
  1.0000800000000001 -0.0049700000000000  7.3931300000000002
  3.1673900000000001  4.1290100000000001  8.2790900000000001
  3.3010899999999999 -0.0086800000000000  5.9174800000000003
  3.3318400000000001  2.7867199999999999  5.9340799999999998
  3.3764900000000000  6.8072900000000001  8.2786600000000004
  3.3305600000000002  5.4909999999999997  5.9401099999999998
  3.3669500000000001  1.4738500000000001  8.2524800000000003
  0.0000000000000000  4.1346400000000001  1.9725400000000000
  0.0000000000000000  0.0000000000000000  4.3598600000000003
  2.1943899999999998  5.5128700000000004  4.3598600000000003
  2.1943899999999998  1.3782399999999999  1.9725400000000000
  2.1943899999999998  2.7564000000000002  4.3598600000000003
  2.1943899999999998  6.8910299999999998  1.9725400000000000
  0.0302900000000000  4.1366600000000000  6.8286400000000000
 -0.1394000000000000 -0.0137400000000000  8.8817100000000000
  2.2602099999999998  5.5703899999999997  9.1805099999999999
  2.2023199999999998  1.3673700000000000  6.7451999999999996
  2.3461099999999999  2.7052800000000001  9.0704600000000006
  2.2013500000000001  6.8948900000000002  6.7545099999999998
  1.9802900000000001  5.5287199999999999 10.1632099999999994
