Cr  N  H 
 1.0000000000000000
     2.8185600000000002    0.0000000000000000    0.0000000000000000
    -1.4093135029999999    5.9627453470000003    0.0000000000000000
     0.0000000000000000    0.0000000000000000   32.8644000000000034
 Cr  N   H  
  12   8   1
Cartesian
  1.4092400000000000  5.3525799999999997  2.5085400000000000
  1.4092700000000000  1.4327300000000001  1.5551400000000000
 -0.0000400000000000  3.9757799999999999  0.7233500000000000
  1.4092400000000000  4.6864200000000000  5.2474600000000002
  1.4092800000000001  0.7665700000000000  4.2937300000000000
 -0.0000300000000000  3.3096199999999998  3.4619399999999998
  1.4244100000000000  3.9163600000000001  8.3262199999999993
  1.4171300000000000  0.0880500000000000  6.9665600000000003
  0.0041200000000000  2.6765699999999999  6.1892399999999999
  1.4282500000000000  3.4305800000000000 10.3100500000000004
  0.0184600000000000  5.7039499999999999  9.8201800000000006
  0.0167100000000000  1.7808700000000000  8.9097500000000007
  1.4092700000000000  3.4608400000000001  2.0484399999999998
 -0.0000100000000000  1.9476700000000000  0.2300500000000000
  1.4092800000000001  2.7946800000000001  4.7873599999999996
 -0.0000100000000000  1.2815099999999999  2.9686400000000002
  1.4198299999999999  2.1659700000000002  7.5326300000000002
  0.0064300000000000  0.6247500000000000  5.7241600000000004
  1.4261500000000000  1.5687199999999999 10.3209300000000006
  1.4251000000000000  5.8273999999999999  8.4467300000000005
  1.4366099999999999  5.1291700000000002 10.9489099999999997
