Cr  N  H 
 1.0000000000000000
     4.7742599999999999    0.0000000000000000    0.0000000000000000
     0.0000000000000000    8.7775599999999994    0.0000000000000000
     0.0000000000000000    0.0000000000000000   33.0771000000000015
 Cr  N   H  
  24  12   1
Cartesian
  1.2268399999999999  3.2788599999999999  3.4456400000000000
  3.5640800000000001  3.2788599999999999  2.0960999999999999
  1.1769499999999999  3.2788599999999999  0.6602200000000000
  2.0059100000000001  1.1099200000000000  2.0960999999999999
  4.3431400000000000  1.1099200000000000  3.4456400000000000
  4.3930400000000001  1.1099200000000000  0.6602200000000000
  3.5605699999999998  3.4637699999999998  7.3907699999999998
  1.1827000000000001  3.3343699999999998  6.0639300000000000
  3.5696200000000000  3.2898999999999998  4.7900299999999998
  4.3731099999999996  1.0328299999999999  6.2251399999999997
  1.8912000000000000  1.1774199999999999  7.5272600000000001
  1.9998499999999999  1.0883200000000000  4.8045400000000003
  1.2268399999999999  7.6676399999999996  3.4456400000000000
  3.5640800000000001  7.6676399999999996  2.0960999999999999
  1.1769499999999999  7.6676399999999996  0.6602200000000000
  2.0059100000000001  5.4987000000000004  2.0960999999999999
  4.3431400000000000  5.4987000000000004  3.4456400000000000
  4.3930400000000001  5.4987000000000004  0.6602200000000000
  3.7111200000000002  7.8364399999999996  7.4255100000000001
  1.2658499999999999  7.7389900000000003  6.1604000000000001
  3.5701000000000001  7.6565399999999997  4.8131300000000001
  4.3862199999999998  5.4353899999999999  6.0828100000000003
  2.0468600000000001  5.1405599999999998  7.4494899999999999
  2.0359500000000001  5.5120600000000000  4.8235900000000003
  2.7849699999999999  0.0000000000000000  3.4456400000000000
  0.3978400000000000  2.1943899999999998  2.0673200000000000
  2.7849699999999999  2.1943899999999998  0.6889999999999999
  0.5307200000000000 -0.0456700000000000  7.6605400000000001
  2.8098800000000002  2.1755300000000002  6.1965199999999996
  0.3894700000000000  2.1532600000000000  4.7889600000000003
  2.7849699999999999  4.3887799999999997  3.4456400000000000
  0.3978400000000000  6.5831700000000000  2.0673200000000000
  2.7849699999999999  6.5831700000000000  0.6889999999999999
  0.3526700000000000  4.4005299999999998  7.5294800000000004
  2.7849699999999999  6.5476000000000001  6.3634800000000000
  0.4225400000000000  6.6073300000000001  4.8199500000000004
  2.3574299999999999  3.2994100000000000  8.5525300000000009
