Cr  N  H 
 1.0000000000000000
     4.3887799999999997    0.0000000000000000    0.0000000000000000
     0.0000000000000000    8.2692700000000006    0.0000000000000000
     0.0000000000000000    0.0000000000000000   28.6456000000000017
 Cr  N   H  
  24  12   1
Cartesian
  1.1099200000000000  1.3493800000000000  0.3646600000000000
  1.1099200000000000  5.4840099999999996  2.7517000000000000
  1.1099200000000000  6.9198899999999997  0.3646600000000000
  1.1099200000000000  2.7852600000000001  2.7517000000000000
  1.1099200000000000  4.1346400000000001  0.4145000000000000
  1.1099200000000000  0.0000000000000000  2.8015400000000001
  3.2788599999999999  4.1346400000000001  3.5308600000000001
  3.2788599999999999  0.0000000000000000  1.1435299999999999
  3.2788599999999999  2.7852600000000001  1.1936599999999999
  3.2788599999999999  6.9198899999999997  3.5807000000000002
  3.2788599999999999  5.4840099999999996  1.1936599999999999
  3.2788599999999999  1.3493800000000000  3.5807000000000002
  1.0851999999999999  1.3908499999999999  5.1478099999999998
  1.1293700000000000  5.5481299999999996  7.5690200000000001
  1.0890200000000001  6.8892699999999998  5.1431300000000002
  1.1248600000000000  2.7328100000000002  7.5645100000000003
  1.1185400000000001  4.1367500000000001  5.2114700000000003
  1.0174799999999999  0.0104900000000000  7.4001700000000001
  3.1695300000000000  4.1531799999999999  8.2805300000000006
  3.3077200000000002  0.0006500000000000  5.9206899999999996
  3.3360400000000001  2.8006700000000002  5.9338400000000000
  3.3904299999999998  6.8362900000000000  8.2762399999999996
  3.3340600000000000  5.4991099999999999  5.9383499999999998
  3.3803800000000002  1.4940000000000000  8.2508199999999992
  0.0000000000000000  4.1346400000000001  1.9725400000000000
  0.0000000000000000  0.0000000000000000  4.3598600000000003
  2.1943899999999998  5.5128700000000004  4.3598600000000003
  2.1943899999999998  1.3782399999999999  1.9725400000000000
  2.1943899999999998  2.7564000000000002  4.3598600000000003
  2.1943899999999998  6.8910299999999998  1.9725400000000000
  0.0327200000000000  4.1496899999999997  6.8294800000000002
 -0.1237400000000000  0.0111800000000000  8.8885699999999996
  2.2666599999999999  5.6026100000000003  9.1737000000000002
  2.2120400000000000  1.3811500000000001  6.7440699999999998
  2.3561100000000001  2.7246100000000002  9.0676600000000001
  2.2096300000000002  6.9066700000000001  6.7508400000000002
  1.9773900000000000  5.5913399999999998 10.1541599999999992
