Re  N  H 
 1.0000000000000000
     3.6890100000000001    0.0000000000000000    0.0000000000000000
     0.5760683760000000    5.7184370319999998    0.0000000000000000
     0.0000000000000000    0.0000000000000000   31.1944000000000017
 Re  N   H  
   8  16   1
Cartesian
  1.3825000000000001  4.4324700000000004  0.8463000000000001
  1.4849399999999999  1.4267500000000000  2.5373500000000000
  3.9977299999999998  4.5406700000000004  3.4457300000000002
  0.4111600000000000  1.5349400000000000  5.1367799999999999
  2.9478599999999999  4.6351100000000001  6.0293999999999999
  2.9818799999999999  1.6276500000000000  7.7407500000000002
  1.9908800000000000  4.9238099999999996  8.5817800000000002
  2.0760600000000000  2.1805300000000001 10.2240300000000008
  3.2252900000000002  4.9486200000000000  0.0620800000000000
  0.7159000000000000  0.8024700000000000  0.7218400000000000
  2.6506200000000000  2.7551399999999999  1.4399299999999999
  3.9058299999999999  3.1040800000000002  1.9437199999999999
  2.1515000000000000  5.0567599999999997  2.6618200000000001
  3.3311600000000001  0.9106000000000000  3.3215800000000000
  1.5768400000000000  2.8633400000000000  4.0393600000000003
  2.8320799999999999  3.2122199999999999  4.5434599999999996
  1.0932400000000000  5.1588000000000003  5.2437800000000001
  2.2436400000000001  1.0011200000000000  5.9272700000000000
  0.5102700000000000  2.9731600000000000  6.7235100000000001
  1.7890900000000001  3.3221500000000002  7.1846399999999999
  3.8076500000000002  5.2993100000000002  7.7637900000000002
  1.1131899999999999  1.2228300000000001  8.7464499999999994
  3.2398600000000002  3.8116200000000000  9.9234000000000009
  0.8528600000000000  3.8244400000000001  9.9178400000000000
  2.5735700000000001  1.2127399999999999 11.7180700000000009
