Re  N Re  N Re  N Re  N  H 
 1.0000000000000000
     3.6890100000000001    0.0000000000000000    0.0000000000000000
     0.5760683759820097    5.7184370321437870    0.0000000000000000
     0.0000000000000000    0.0000000000000000   31.1944000000000017
 Re  N   Re  N   Re  N   Re  N   H  
   2   4   2   4   2   4   2   4   1
Cartesian
  1.3824977367911753  4.4324749123552927  0.8463040720000001
  1.4849424255075114  1.4267500395198749  2.5373524960000000
  3.2252866828073117  4.9486210388765910  0.0620768560000000
  0.7159027467015554  0.8024682687207377  0.7218384160000001
  2.6506160963481324  2.7551429620868766  1.4399335040000001
  3.9058340659505548  3.1040819897882903  1.9437230640000001
  3.9977273401647553  4.5406677410034524  3.4457334240000002
  0.4111620288810910  1.5349428681680353  5.1367818480000009
  2.1515005254971316  5.0567566831544291  2.6618181520000004
  3.3311634794913751  0.9106039129985766  3.3215797120000001
  1.5768356997217119  2.8633357907350372  4.0393628560000003
  2.8320847987403743  3.2122176340661293  4.5434643600000006
  2.9392237001240269  4.6318431337832671  6.0317031424384187
  2.9756673312000892  1.6209613915079137  7.7370841529672782
  1.0866811497995881  5.1581651016212016  5.2484594237354578
  2.2426337902389504  0.9995551610980113  5.9274508606203593
  0.4998951483450099  2.9648875400327128  6.7226826686804646
  1.7785817218381461  3.3144373501424669  7.1866043869805685
  1.9642242605823861  4.8991877352190807  8.5849298396371214
  1.9833944214046506  2.1807506520077498 10.2721520045927353
  3.7859775216485492  5.2929475314050816  7.7736484438877982
  1.1031003226932554  1.2202078875674225  8.7609028276106695
  3.1873523457119521  3.8139117754201641  9.9462173322570209
  0.8002630204908721  3.8101803269731951  9.9344046774296846
  2.1946966702007846  1.1713515145655848 11.7470970858154384
