Fe  N  H 
 1.0000000000000000
     5.4543900000000001    0.0000000000000000    0.0000000000000000
     0.0000000000000000    6.4079199999999998    0.0000000000000000
     0.0000000000000000    0.0000000000000000   31.9130000000000003
 Fe  N   H  
  32  16   1
Cartesian
  0.6860500000000000  3.8658999999999999  1.4600200000000001
  0.6860500000000000  0.9465100000000000  4.6513200000000001
  2.0411400000000000  2.9958300000000002  3.5950000000000002
  2.0411400000000000  5.9152199999999997  0.4037000000000000
  2.0411400000000000  2.6879900000000001  6.2501600000000002
  2.0411400000000000  5.6073800000000000  3.0588600000000001
  0.6860500000000000  4.7373099999999999  5.1938399999999998
  0.6860500000000000  1.2487800000000000  2.0025400000000002
  4.7683400000000002  2.6907500000000000  6.2469700000000001
  4.7683400000000002  5.6101299999999998  3.0556700000000001
  3.4132500000000001  4.7401299999999997  5.1906499999999998
  3.4132500000000001  1.2515900000000000  1.9993500000000000
  3.4132500000000001  3.8631400000000000  1.4632099999999999
  3.4132500000000001  0.9436900000000000  4.6545100000000001
  4.7683400000000002  2.9930800000000000  3.5981900000000002
  4.7683400000000002  5.9124600000000003  0.4068900000000000
  0.6531000000000000  4.4657099999999996  7.8230899999999997
  0.6815400000000000  1.5662000000000000 10.9575899999999997
  1.9438000000000000  3.5872999999999999  9.9352400000000003
  2.0328599999999999  0.0817600000000000  6.7830199999999996
  2.1654900000000001  3.2998500000000002 12.3805599999999991
  1.9846500000000000  6.2138900000000001  9.4478399999999993
  0.6203000000000000  5.3506200000000002 11.4075199999999999
  0.6361900000000000  1.8419000000000001  8.3730700000000002
  4.4606700000000004  3.3193999999999999 12.4267800000000008
  4.7553299999999998  6.2107400000000004  9.4440799999999996
  3.2648500000000000  5.3148200000000001 11.4662299999999995
  3.3679600000000001  1.8478100000000000  8.3678699999999999
  3.3769300000000002  4.4353100000000003  7.8156299999999996
  3.2883000000000000  1.5508100000000000 10.9766399999999997
  4.6954300000000000  3.5789100000000000  9.9730200000000000
  4.7571099999999999  0.0722800000000000  6.7795300000000003
  0.7362900000000000  2.8419099999999999  4.9225800000000000
  0.7362900000000000  5.7613000000000003  1.7312799999999999
  1.9909100000000000  2.5573399999999999  1.7312799999999999
  1.9909100000000000  6.0458699999999999  4.9225800000000000
  4.7180999999999997  4.0170599999999999  0.1356300000000000
  4.7180999999999997  1.0976800000000000  3.3269299999999999
  3.4634800000000001  0.8131000000000000  0.1356300000000000
  3.4634800000000001  4.3016399999999999  3.3269299999999999
  0.5809900000000000  3.4414300000000000 11.4232399999999998
  0.6976700000000000  6.3594600000000003  8.0849299999999999
  1.9457800000000001  3.1467299999999998  8.0715599999999998
  1.9343999999999999  0.3017800000000000 11.4504800000000007
  4.7131999999999996  4.5885199999999999  6.5090100000000000
  4.6696400000000002  1.6797599999999999  9.7173700000000007
  3.4599299999999999  1.3772500000000001  6.5124800000000000
  3.4200900000000001  4.9318900000000001  9.6460299999999997
  3.2816200000000002  3.2137300000000000 13.6230700000000002
