Cr  N  H 
 1.0000000000000000
     2.8185600000000002    0.0000000000000000    0.0000000000000000
    -1.4093135029999999    5.9627453470000003    0.0000000000000000
     0.0000000000000000    0.0000000000000000   32.8644000000000034
 Cr  N   H  
  12   8   1
Cartesian
  1.4092499999999999  5.6296700000000000  1.3694599999999999
  1.4092700000000000  1.7098800000000001  0.4160600000000000
 -0.0000200000000000  3.5867100000000001  2.3228599999999999
  1.4092499999999999  4.9635100000000003  4.1080500000000004
  1.4092700000000000  1.0437200000000000  3.1546500000000002
 -0.0000200000000000  2.9205500000000000  5.0614499999999998
  1.4094400000000000  4.3319999999999999  6.7370000000000001
  1.4107200000000000  0.3800200000000000  5.8821899999999996
 -0.0001500000000000  2.2893300000000001  7.7310200000000000
  1.4085600000000000  3.6997599999999999  9.4084400000000006
  0.0000600000000000  5.6689800000000004  8.6883199999999992
  0.0002400000000000  1.6609200000000000 10.3175799999999995
  1.4092400000000000  3.7379899999999999  0.9093599999999999
  0.0000100000000000  1.5586000000000000  1.8295600000000001
  1.4092499999999999  3.0718299999999998  3.6479499999999998
 -0.0000100000000000  0.8925000000000000  4.5681500000000002
  1.4092199999999999  2.4060999999999999  6.3608700000000002
  0.0004800000000000  0.2175300000000000  7.3164199999999999
  1.4093000000000000  1.7474700000000001  9.0653000000000006
  1.4092899999999999  5.5452100000000000 10.1224699999999999
  1.4097900000000001  5.2462600000000004 11.1119599999999998
