Fe  N  H 
 1.0000000000000000
     5.4543900000000001    0.0000000000000000    0.0000000000000000
     0.0000000000000000    6.4079199999999998    0.0000000000000000
     0.0000000000000000    0.0000000000000000   31.9130000000000003
 Fe  N   H  
  32  16   1
Cartesian
  0.6860500000000000  3.8658999999999999  1.4600200000000001
  0.6860500000000000  0.9465100000000000  4.6513200000000001
  2.0411400000000000  2.9958300000000002  3.5950000000000002
  2.0411400000000000  5.9152199999999997  0.4037000000000000
  2.0411400000000000  2.6879900000000001  6.2501600000000002
  2.0411400000000000  5.6073800000000000  3.0588600000000001
  0.6860500000000000  4.7373099999999999  5.1938399999999998
  0.6860500000000000  1.2487800000000000  2.0025400000000002
  4.7683400000000002  2.6907500000000000  6.2469700000000001
  4.7683400000000002  5.6101299999999998  3.0556700000000001
  3.4132500000000001  4.7401299999999997  5.1906499999999998
  3.4132500000000001  1.2515900000000000  1.9993500000000000
  3.4132500000000001  3.8631400000000000  1.4632099999999999
  3.4132500000000001  0.9436900000000000  4.6545100000000001
  4.7683400000000002  2.9930800000000000  3.5981900000000002
  4.7683400000000002  5.9124600000000003  0.4068900000000000
  0.6881400000000000  4.4480700000000004  7.8217699999999999
  0.7553299999999999  1.5611299999999999 10.9511400000000005
  2.0055999999999998  3.5823999999999998  9.9331600000000009
  2.0607700000000002  0.0745200000000000  6.7786900000000001
  2.2528999999999999  3.2923000000000000 12.3861899999999991
  2.0434800000000002  6.2059199999999999  9.4384200000000007
  0.6956300000000000  5.3425900000000004 11.4059200000000001
  0.6777100000000000  1.8235699999999999  8.3699999999999992
  4.5428300000000004  3.3214199999999998 12.4220000000000006
  4.8174599999999996  6.2050700000000001  9.4451999999999998
  3.3421799999999999  5.3041499999999999 11.4591200000000004
  3.4110800000000001  1.8287100000000001  8.3755000000000006
  3.4103200000000000  4.4153300000000000  7.8214399999999999
  3.3630200000000001  1.5436700000000001 10.9825999999999997
  4.7675000000000001  3.5756600000000001  9.9670299999999994
  4.7785599999999997  0.0695600000000000  6.7826000000000004
  0.7362900000000000  2.8419099999999999  4.9225800000000000
  0.7362900000000000  5.7613000000000003  1.7312799999999999
  1.9909100000000000  2.5573399999999999  1.7312799999999999
  1.9909100000000000  6.0458699999999999  4.9225800000000000
  4.7180999999999997  4.0170599999999999  0.1356300000000000
  4.7180999999999997  1.0976800000000000  3.3269299999999999
  3.4634800000000001  0.8131000000000000  0.1356300000000000
  3.4634800000000001  4.3016399999999999  3.3269299999999999
  0.6669200000000000  3.4355400000000000 11.4225499999999993
  0.7381400000000000  6.3394399999999997  8.0809400000000000
  1.9860599999999999  3.1322800000000002  8.0743200000000002
  2.0077400000000001  0.2956100000000000 11.4421999999999997
  4.7263900000000003  4.5887200000000004  6.5096900000000000
  4.7320700000000002  1.6777400000000000  9.7172300000000007
  3.4740000000000002  1.3692400000000000  6.5152099999999997
  3.4838499999999999  4.9202500000000002  9.6398499999999991
  3.3748900000000002  3.1935899999999999 13.6284600000000005
