Ti  N  H 
 1.0000000000000000
     4.9446000000000003    0.0000000000000000    0.0000000000000000
     0.0000000000000000    6.0573399999999999    0.0000000000000000
     0.0000000000000000    0.0000000000000000   34.6122000000000014
 Ti  N   H  
  16   8   1
Cartesian
  3.9400100000000000  1.5143300000000000  4.7131400000000001
  3.4768900000000000  0.0000000000000000  2.2407900000000001
  1.0045900000000001  1.5143300000000000  2.7039100000000000
  1.4677100000000001  0.0000000000000000  0.2315600000000000
  3.8568500000000001  1.5143300000000000  9.4163200000000007
  3.6149000000000000 -0.0068600000000000  7.0694100000000004
  1.1244499999999999  1.5143300000000000  7.7720900000000004
  1.4477400000000000  0.0025800000000000  5.2242600000000001
  3.9400100000000000  4.5430000000000001  4.7131400000000001
  3.4768900000000000  3.0286700000000000  2.2407900000000001
  1.0045900000000001  4.5430000000000001  2.7039100000000000
  1.4677100000000001  3.0286700000000000  0.2315600000000000
  3.8283399999999999  4.5430000000000001  9.3758400000000002
  3.6149000000000000  3.0355300000000001  7.0694100000000004
  1.1001399999999999  4.5430000000000001  7.7603200000000001
  1.4477400000000000  3.0260899999999999  5.2242600000000001
  2.4723000000000002  1.5143300000000000  1.2360000000000000
  0.0000000000000000  0.0000000000000000  3.7083499999999998
  2.4837400000000001  1.5143300000000000  6.1811600000000002
  0.0353800000000000 -0.0037400000000000  8.7563600000000008
  2.4723000000000002  4.5430000000000001  1.2360000000000000
  0.0000000000000000  3.0286700000000000  3.7083499999999998
  2.4784600000000001  4.5430000000000001  6.1814200000000001
  0.0353800000000000  3.0324100000000000  8.7563600000000008
  3.1282999999999999  1.5143300000000000 11.0714400000000008
