Co Ni Co Ni Co Ni  H 
 1.0000000000000000
     5.0045296458449471    0.0000000000000000    0.0000000000000000
    -2.5022648229224735    4.3340496932927355    0.0000000000000000
     0.0000000000000000    0.0000000000000000   24.0861802954956694
 Co  Ni  Co  Ni  Co  Ni  H  
   3   1   3   1   3   1   1
Cartesian
  0.0000000000000000  0.0000000000000000  9.9999992923310419
 -1.2511324114612368  2.1670249466463605  9.9999992923310419
  1.2511324114612368  2.1670249466463605  9.9999992923310419
  2.5022649229224663  0.0000000000000000  9.9999992923310419
  2.5022649229224663  1.4446832977642403 12.0430900477478406
  1.2511324114612368  3.6117082444106012 12.0430900477478406
 -1.2511324114612368  3.6117082444106012 12.0430900477478406
  0.0000000000000000  1.4446832977642403 12.0430900477478406
  0.0002103999851106  2.9002552947579212 14.0336664068809220
  1.2610952107562003  0.7173016492387854 14.0330045069277620
  3.7433572350942099  0.7170173492589044 14.0325596069592464
  2.5020960229344191  2.8887489955721861 14.0971126023910305
  2.5022809229213339  2.8893976955262799 15.5939257964662001
