Zr Rh Zr Rh Zr Rh Zr  H 
 1.0000000000000000
     5.7245375948922161    0.0000000000000000    0.0000000000000000
     1.9977568586249386    5.3646336203615048    0.0000000000000000
     0.0000000000000000    0.0000000000000000   24.6985632521592215
 Zr  Rh  Zr  Rh  Zr  Rh  Zr  H  
   1   2   2   2   2   2   1   1
Cartesian
  0.0000000000000000  0.0000000000000000  9.9999992162207807
  0.9988784293124693  2.6823168101807524  9.9999992162207807
  2.8622687974461081  0.0000000000000000  9.9999992162207807
  3.8611472267585771  2.6823168101807524  9.9999992162207807
  5.7245375270650012  3.9768033534032079 12.3492816260796108
  4.7256590977525317  1.2944865432224553 12.3492816260796108
  2.8622687296188927  3.9768033534032079 12.3492816260796108
  1.8633903003064234  1.2944865432224553 12.3492816260796108
  3.8344727040484035  2.6638295155823788 14.7378885696787005
  4.7816839472646508  5.3854134535851044 14.5365878449060624
  6.7156344030878072  2.6015669823101315 14.5367430506775399
  7.6123683814114722  5.2882385445614792 14.7259144839269833
  1.6653979995554229  1.1572950080491229 15.5571351953272394
