 V  N  H 
 1.0000000000000000
     4.8897899999999996    0.0000000000000000    0.0000000000000000
     0.0000000000000000    9.0440799999999992    0.0000000000000000
     0.0000000000000000    0.0000000000000000   33.8774000000000015
 V   N   H  
  24  12   1
Cartesian
  3.6749200000000002  3.4110200000000002  2.1041300000000001
  2.0297999999999998  1.1110199999999999  2.1041300000000001
  4.4975300000000002  1.1110199999999999  3.5290100000000000
  1.2072400000000001  3.4110200000000002  3.5290100000000000
  1.2300300000000000  3.4110200000000002  0.7188800000000000
  4.4747000000000003  1.1110199999999999  0.7188800000000000
  1.2668299999999999  3.4306399999999999  6.3076100000000004
  4.4769500000000004  1.0927500000000001  6.3199899999999998
  2.0520100000000001  0.9326100000000001  7.5301299999999998
  3.7193299999999998  3.5849099999999998  7.5712799999999998
  3.6829600000000000  3.3834000000000000  4.9286799999999999
  2.0380500000000001  1.1434599999999999  4.9173700000000000
  3.6749200000000002  7.9330600000000002  2.1041300000000001
  2.0297999999999998  5.6330600000000004  2.1041300000000001
  4.4975300000000002  5.6330600000000004  3.5290100000000000
  1.2072400000000001  7.9330600000000002  3.5290100000000000
  1.2300300000000000  7.9330600000000002  0.7188800000000000
  4.4747000000000003  5.6330600000000004  0.7188800000000000
  1.2278000000000000  7.9513400000000001  6.3199899999999998
  4.4379099999999996  5.6134500000000003  6.3076100000000004
  1.9854099999999999  5.4591700000000003  7.5712799999999998
  3.6527300000000000  8.1114700000000006  7.5301299999999998
  3.6667000000000001  7.9006400000000001  4.9173799999999996
  2.0217900000000002  5.6606899999999998  4.9286799999999999
  2.8523600000000000  0.0000000000000000  3.5290100000000000
  2.8523600000000000  2.2610199999999998  0.7056700000000000
  0.4074700000000000  2.2610199999999998  2.1173400000000000
  0.4074800000000000  0.0000000000000000  7.9366700000000003
  0.4128900000000000  2.2572600000000000  4.9290000000000003
  2.8758800000000000  2.2656999999999998  6.3855000000000004
  2.8523600000000000  4.5220399999999996  3.5290100000000000
  2.8523600000000000  6.7830599999999999  0.7056700000000000
  0.4074700000000000  6.7830599999999999  2.1173400000000000
  0.4074800000000000  4.5220399999999996  7.7919000000000000
  0.4020700000000000  6.7868300000000001  4.9290000000000003
  2.8288700000000002  6.7783899999999999  6.3855000000000004
  0.4074700000000000  9.0440799999999992  8.9786599999999996
