 V  N  H 
 1.0000000000000000
     4.8897899999999996    0.0000000000000000    0.0000000000000000
     0.0000000000000000    9.0440799999999992    0.0000000000000000
     0.0000000000000000    0.0000000000000000   33.8774000000000015
 V   N   H  
  24  12   1
Cartesian
  3.6749200000000002  3.4110200000000002  2.1041300000000001
  2.0297999999999998  1.1110199999999999  2.1041300000000001
  4.4975300000000002  1.1110199999999999  3.5290100000000000
  1.2072400000000001  3.4110200000000002  3.5290100000000000
  1.2300300000000000  3.4110200000000002  0.7188800000000000
  4.4747000000000003  1.1110199999999999  0.7188800000000000
  1.2568800000000000  3.4235000000000002  6.3026799999999996
  4.4493999999999998  1.0878500000000000  6.2777000000000003
  2.0267400000000002  0.8989400000000000  7.6155999999999997
  3.7211900000000000  3.6058699999999999  7.5587299999999997
  3.6731199999999999  3.3841999999999999  4.9341200000000001
  2.0356200000000002  1.1377800000000000  4.9282199999999996
  3.6749200000000002  7.9330600000000002  2.1041300000000001
  2.0297999999999998  5.6330600000000004  2.1041300000000001
  4.4975300000000002  5.6330600000000004  3.5290100000000000
  1.2072400000000001  7.9330600000000002  3.5290100000000000
  1.2300300000000000  7.9330600000000002  0.7188800000000000
  4.4747000000000003  5.6330600000000004  0.7188800000000000
  1.2551900000000000  7.9643100000000002  6.2799300000000002
  4.4541599999999999  5.6287900000000004  6.3041000000000000
  1.9941700000000000  5.4587399999999997  7.5599400000000001
  3.6758600000000001  8.1509499999999999  7.6143799999999997
  3.6726299999999998  7.9113400000000000  4.9261999999999997
  2.0347100000000000  5.6640800000000002  4.9343800000000000
  2.8523600000000000  0.0000000000000000  3.5290100000000000
  2.8523600000000000  2.2610199999999998  0.7056700000000000
  0.4074700000000000  2.2610199999999998  2.1173400000000000
  0.4053100000000000  0.0058000000000000  7.7425499999999996
  0.4086300000000000  2.2625199999999999  4.9213899999999997
  2.8432200000000001  2.2474900000000000  6.4209100000000001
  2.8523600000000000  4.5220399999999996  3.5290100000000000
  2.8523600000000000  6.7830599999999999  0.7056700000000000
  0.4074700000000000  6.7830599999999999  2.1173400000000000
  0.4156900000000000  4.5276399999999999  7.7873999999999999
  0.4092200000000000  6.7862999999999998  4.9207900000000002
  2.8648199999999999  6.8063900000000004  6.4099899999999996
  2.8590300000000002  0.0056700000000000  8.9474400000000003
