Al Zn Al Zn Al Zn Al  H 
 1.0000000000000000
     5.6530405999518365    0.0000000000000000    0.0000000000000000
     2.8153598007657124    4.9021036530933166    0.0000000000000000
     0.0000000000000000    0.0000000000000000   24.6186912578115198
 Al  Zn  Al  Zn  Al  Zn  Al  H  
   1   2   2   2   1   2   2   1
Cartesian
  1.3965196674137301  0.8084034574776886  9.9999991675619455
  4.2230399673896484  0.8084034574776886  9.9999991675619455
  2.8041995677965863  3.2594552840243467  9.9999991675619455
  5.6307198677725045  3.2594552840243467  9.9999991675619455
  2.8153599381204528  1.6297276444632254 12.3093456289057599
  5.6418802380963706  1.6297276444632254 12.3093456289057599
  4.2230398385033094  4.0807794710098841 12.3093456289057599
  7.0495601384792277  4.0807794710098841 12.3093456289057599
  2.6996436718132584 -0.0734442434282345 14.6381405363002610
  1.4975535342591706  2.5030772790708102 14.6769850644453239
  4.2582124219300326  2.4702758966242144 14.6663742115636779
  0.0286286865354536  0.0112486807770217 14.6663739899954546
  4.6631594576644932  1.0631758238372300 15.7128358494090712
