Nb  N Nb  N  H 
 1.0000000000000000
     5.3445200000000002    0.0000000000000000    0.0000000000000000
     0.0000000000000000    9.7873800000000006    0.0000000000000000
     0.0000000000000000    0.0000000000000000   27.5406000000000013
 Nb  N   Nb  N   H  
   8  10   8  10   1
Cartesian
  2.0013624044000000  4.0122385572000008  0.1624895400000000
  1.1377414176000000  8.9059285572000011  2.1297145980000001
  3.0737403423999998  2.9958191442000000  2.9796175140000001
  3.9373613291999998  7.8895091441999998  1.0123924560000002
  4.6879991632000007  6.7915608558000011  3.6882371520000006
  0.2071001500000000  1.8978708558000001  1.7210120940000000
  2.1430456296000000  5.7751414428000007  2.5711904159999999
  3.0067200615999998  0.8814514428000001  0.6039653580000001
  3.8808697528000002  4.8936900000000003  3.3340650360000001
  4.7444907396000007  0.0000000000000000  1.3668399780000000
  2.9588331623999999  5.9306629110000006  0.5827590960000001
  2.0952121755999999  1.0369729110000001  2.5499841540000001
  4.8303771760000007  1.9501354650000002  3.7507543140000004
  0.3494781628000000  6.8438254650000010  1.7835292560000000
  2.9313623295999998  7.8372445350000000  2.9171003520000003
  3.7949833164000002  2.9435545350000005  0.9498752940000000
  1.1856283168000001  3.8567170890000004  2.1506454540000002
  2.0492493035999999  8.7504070890000012  0.1834203960000000
  0.3203772283801777  3.9257040171939055  4.0339443929399943
  4.9067699827403022  8.9167542860879383  5.9953332197912621
  1.1557287400193366  2.9450416429531052  7.2060978836212550
  2.2592124966958900  7.9960920030897924  4.9627418406631705
  2.5688474262592620  6.6213251434514255  7.5038577552926196
  3.7446998579337980  1.9807532750830814  5.9362178515916026
  0.3187654080898443  5.7461428727288286  6.2947877504041525
  1.2464013499256332  0.9430733589654456  4.5479995586462989
  1.6634407808236067  4.8988030123688109  7.6867087302473474
  3.0438634974632421  0.0352109338852115  5.4047597799997549
  1.1851508989112998  5.9332765979008739  4.5113282719608652
  0.2663455899593919  1.0504257620597792  6.4437545009658770
  2.8503284971252913  2.0939212797287667  7.5757853094525496
  3.8327837218730036  6.7922402853098713  5.9616233782364860
  1.1231157389579878  7.8274335355077884  6.9286097506291124
  2.0968175797509128  2.9357120391421891  4.8872996445077135
  4.8962748089864458  3.8541947771712364  6.0484853996046297
  0.3220258873557176  8.7595467948590571  4.1271320229887261
  0.2968551842393632  2.7160155314077330  8.7616848744288554
