 V  N  H 
 1.0000000000000000
     4.8897899999999996    0.0000000000000000    0.0000000000000000
     0.0000000000000000    9.0440799999999992    0.0000000000000000
     0.0000000000000000    0.0000000000000000   33.8774000000000015
 V   N   H  
  24  12   1
Cartesian
  3.6749200000000002  3.4110200000000002  2.1041300000000001
  2.0297999999999998  1.1110199999999999  2.1041300000000001
  4.4975300000000002  1.1110199999999999  3.5290100000000000
  1.2072400000000001  3.4110200000000002  3.5290100000000000
  1.2300300000000000  3.4110200000000002  0.7188800000000000
  4.4747000000000003  1.1110199999999999  0.7188800000000000
  1.2508200000000000  3.4149600000000002  6.3012499999999996
  4.4468100000000002  1.0819600000000000  6.2839099999999997
  2.0259600000000000  0.8965500000000000  7.6200599999999996
  3.7166999999999999  3.5962399999999999  7.5561600000000002
  3.6674400000000000  3.3814899999999999  4.9335100000000001
  2.0327400000000000  1.1315299999999999  4.9291999999999998
  3.6749200000000002  7.9330600000000002  2.1041300000000001
  2.0297999999999998  5.6330600000000004  2.1041300000000001
  4.4975300000000002  5.6330600000000004  3.5290100000000000
  1.2072400000000001  7.9330600000000002  3.5290100000000000
  1.2300300000000000  7.9330600000000002  0.7188800000000000
  4.4747000000000003  5.6330600000000004  0.7188800000000000
  1.2579400000000001  7.9621199999999996  6.2839099999999997
  4.4539299999999997  5.6291300000000000  6.3012499999999996
  1.9880500000000001  5.4478400000000002  7.5561499999999997
  3.6787899999999998  8.1475299999999997  7.6200599999999996
  3.6720100000000002  7.9125600000000000  4.9291999999999998
  2.0373199999999998  5.6626000000000003  4.9335100000000001
  2.8523600000000000  0.0000000000000000  3.5290100000000000
  2.8523600000000000  2.2610199999999998  0.7056700000000000
  0.4074700000000000  2.2610199999999998  2.1173400000000000
  0.4074800000000000  0.0000000000000000  7.7457000000000003
  0.4042600000000000  2.2583500000000001  4.9223699999999999
  2.8361000000000001  2.2403200000000001  6.4173200000000001
  2.8523600000000000  4.5220399999999996  3.5290100000000000
  2.8523600000000000  6.7830599999999999  0.7056700000000000
  0.4074700000000000  6.7830599999999999  2.1173400000000000
  0.4074800000000000  4.5220399999999996  7.7828400000000002
  0.4107000000000000  6.7857300000000000  4.9223699999999999
  2.8686500000000001  6.8037599999999996  6.4173200000000001
  2.8523700000000001  0.0000000000000000  8.9544200000000007
