Mn  N  H 
 1.0000000000000000
     5.5307500000000003    0.0000000000000000    0.0000000000000000
     0.0000000000000000    6.4926800000000000    0.0000000000000000
     0.0000000000000000    0.0000000000000000   32.3235000000000028
 Mn  N   H  
  32  16   1
Cartesian
  0.6667319125000083  3.9257340352000218  1.4836486500001036
  0.6667319125000083  0.9804596067999961  4.7159986499999196
  2.0986430874999917  3.0394832151999887  3.6341311050001104
  2.0986430874999917  5.9846927167999935  0.4017811050000614
  2.0986430874999917  2.7580255372000106  6.3279715950001014
  2.0986430874999917  5.7032350388000150  3.0956215950000554
  0.6667319125000083  4.8169842187999814  5.2461040500000617
  0.6667319125000083  1.2695786472000079  2.0137540500000162
  4.8640180874999919  2.7541948559999936  6.3321736500000556
  4.8640180874999919  5.6994692844000197  3.0998236500000100
  3.4321069125000085  4.8131535376000114  5.2503061050000159
  3.4321069125000085  1.2657479659999908  2.0179561049999708
  3.4321069125000085  3.9295647163999923  1.4794465949999163
  3.4321069125000085  0.9842902880000131  4.7117965949999610
  4.8640180874999919  3.0432489695999845  3.6299290499999226
  4.8640180874999919  5.9885233980000105  0.3975790500001067
  0.6516976843297493  4.5364391832064266  7.9462394542122032
  0.7079010627205423  1.5735788330125515 11.0707323162867990
  2.0488904790150611  3.6736597080990570 10.0650778964983783
  2.0951073962308322  0.0961623064151207  6.8717246545512518
  2.1882365338848353  3.2505944304314220 12.6915148350863802
  2.0828342964130200  6.3621367032880860  9.5855051836724154
  0.6802477308551070  5.4590396656982447 11.6648480675884212
  0.6609399319063011  1.8720447214368603  8.4528363086354403
  4.7490353214352234  3.3418724703237102 12.7660691699578415
  4.8291778767874964  6.3236848007005850  9.5438918976116796
  3.4350682402156929  5.3651032938628260 11.6624939939966108
  3.3966064953037609  1.8777208016562765  8.4687907208268420
  3.4093726632667702  4.5336116637403450  7.9101323481615653
  3.4358560066914601  1.5034178126456272 11.1492161246421695
  4.8487488346252414  3.6555773649361818 10.0620532354003451
  4.8576901905685714  0.1001977376269093  6.8531736657131201
  0.7398484274999911  2.8987219128000126  4.9810513499999907
  0.7398484274999911  5.8439963411999916  1.7487013499999453
  2.0255265725000089  2.5976563411999916  1.7487013499999453
  2.0255265725000089  6.1450619128000117  4.9810513499999907
  4.7909015725000090  4.0702610919999946  0.1325263500000356
  4.7909015725000090  1.1249866636000150  3.3648763500000811
  3.5052234274999914  0.8239210919999941  0.1325263500000356
  3.5052234274999914  4.3713266636000148  3.3648763500000811
  0.7115017588750664  3.4693255255294462 11.4641845576505297
  0.7284167327096537  6.4426653840354575  8.2170513568732524
  2.0196281235915157  3.2153468891268444  8.1914258013267727
  2.0441360185397230  0.2766912384478097 11.5451824522273547
  4.7843423882424529  4.6718920793478356  6.5935499564129225
  4.7759647669218763  1.7415357608778270  9.8099494084407457
  3.5025350861581250  1.4290856779376646  6.5996160381352063
  3.4954126967105728  4.9780101177201939  9.8031833286568038
  4.7907597690787851  5.2798984941466047 12.8238844371374352
