 V  N  H 
 1.0000000000000000
     4.5220399999999996    0.0000000000000000    0.0000000000000000
     0.0000000000000000    8.4693600000000000    0.0000000000000000
     0.0000000000000000    0.0000000000000000   29.3386999999999993
 V   N   H  
  24  12   1
Cartesian
  1.1110199999999999  7.0446400000000002  0.4227700000000000
  1.1110199999999999  2.8099599999999998  2.8675600000000001
  3.4110200000000002  4.2346800000000000  3.6902200000000001
  3.4110200000000002  0.0000000000000000  1.2451300000000001
  3.4110200000000002  2.8099599999999998  1.2225400000000000
  3.4110200000000002  7.0446400000000002  3.6673399999999998
  1.1110199999999999  1.4247200000000000  0.4227700000000000
  1.1110199999999999  5.6593999999999998  2.8675600000000001
  1.1110199999999999  4.2346800000000000  0.3998900000000000
  1.1110199999999999  0.0000000000000000  2.8446799999999999
  3.4110200000000002  5.6593999999999998  1.2225400000000000
  3.4110200000000002  1.4247200000000000  3.6673399999999998
  1.1157100000000000  7.0449799999999998  5.2865599999999997
  1.1343399999999999  2.8054500000000000  7.7419700000000002
  3.2306699999999999  4.2466499999999998  8.5179799999999997
  3.3881500000000000  0.0063500000000000  6.0992899999999999
  3.4263300000000001  2.8106499999999999  6.0879099999999999
  3.3897100000000000  7.0303199999999997  8.5085099999999994
  1.1136100000000000  1.4302999999999999  5.2864699999999996
  1.1324399999999999  5.6845900000000000  7.7428800000000004
  1.1014200000000001  4.2374599999999996  5.2998599999999998
  1.0294800000000000  0.0085100000000000  7.6388600000000002
  3.4249499999999999  5.6702700000000004  6.0890100000000000
  3.3885500000000000  1.4625600000000001  8.5053199999999993
  0.0000000000000000  4.2346800000000000  2.0449099999999998
  0.0000000000000000  0.0000000000000000  4.4899899999999997
  2.2610199999999998  2.8230900000000001  4.4899899999999997
  2.2610199999999998  7.0577699999999997  2.0449099999999998
  2.2610199999999998  5.6462700000000003  4.4899899999999997
  2.2610199999999998  1.4115899999999999  2.0449099999999998
 -0.0006500000000000  4.2427000000000001  6.9812700000000003
 -0.1161900000000000  0.0151500000000000  9.3082200000000004
  2.3896099999999998  2.7760600000000002  9.2697199999999995
  2.2518300000000000  7.0803599999999998  6.9176299999999999
  2.3893900000000001  5.7162899999999999  9.2702100000000005
  2.2499500000000001  1.4042600000000001  6.9166299999999996
  4.7908799999999996  0.0280600000000000 10.2578300000000002
