Mo  N  H 
 1.0000000000000000
     4.9934599999999998    0.0000000000000000    0.0000000000000000
    -6.3573029641326633    7.7021600936769712    0.0000000000000000
     0.0000000000000000    0.0000000000000000   30.0394000000000005
 Mo  N   H  
  16   8   1
Cartesian
 -0.3075435550719672  2.4980800939827037  2.2992156760000420
 -2.8042870550728485  3.6746620698928028  3.2379469260000420
  4.8473426467006471  0.0688573112374922  0.5169780739999580
  2.3505991466997300  1.2454392871475917  1.4557093239999581
 -2.0997730538217132  3.3480396394857079  6.0027384871472744
  3.6738938418258469  0.6018967012056538  6.8301063910420687
  3.0108001239003666  0.9207247889722834  4.4229382077703354
  0.5239061563800838  2.1080927744660141  5.3298368973975716
 -3.4861950371382981  6.3491601408211888  2.2992156760000420
 -5.9829385371391801  7.5257421167312888  3.2379469260000420
  1.6686911646343154  3.9199373580759778  0.5169780739999580
 -0.8280523353666016  5.0965193339860768  1.4557093239999581
 -5.3477641336670567  7.2054739281184359  6.0037194952548063
  0.3902022741433462  4.5137841592316859  6.8519739238231390
 -0.1782917917574533  4.7826436032680242  4.4019167925014191
 -2.6566702007161433  5.9349624760997806  5.3189916860458339
  1.3625091474030953  1.7110733756108136  3.2857095720000480
  0.6805464442246678  2.0324460055194815  0.4692154279999520
 -0.5625687391781169  2.5761767440042083  7.0423920047940909
 -1.1362281749565377  2.8728690931379020  4.2595768881605558
 -1.8161423346632364  5.5621534224492990  3.2857095720000480
 -2.4981050378416638  5.8835260523579676  0.4692154279999520
 -3.7419916881125785  6.4785985891736102  7.0142008530801156
 -4.3086103336937498  6.7289541499789118  4.2586620322382913
 -0.7277640282565470  5.0050382179882993  8.1014838097654760
