Cr  N  H 
 1.0000000000000000
     2.8185600000000002    0.0000000000000000    0.0000000000000000
    -1.4093135029999999    5.9627453470000003    0.0000000000000000
     0.0000000000000000    0.0000000000000000   32.8644000000000034
 Cr  N   H  
  12   8   1
Cartesian
  1.4092400000000000  5.3525799999999997  2.5085400000000000
  1.4092700000000000  1.4327300000000001  1.5551400000000000
 -0.0000400000000000  3.9757799999999999  0.7233500000000000
  1.4092400000000000  4.6864200000000000  5.2474600000000002
  1.4092800000000001  0.7665700000000000  4.2937300000000000
 -0.0000300000000000  3.3096199999999998  3.4619399999999998
  1.4099500000000000  3.9088400000000001  8.3755799999999994
  1.4098200000000001  0.0980400000000000  7.0048399999999997
 -0.0008600000000000  2.6590900000000000  6.2029300000000003
  1.4103100000000000  3.4117199999999999 10.3645300000000002
  0.0007100000000000  5.7506599999999999  9.8431899999999999
  0.0013600000000000  1.7776200000000000  8.9290099999999999
  1.4092700000000000  3.4608400000000001  2.0484399999999998
 -0.0000100000000000  1.9476700000000000  0.2300500000000000
  1.4092800000000001  2.7946800000000001  4.7873599999999996
 -0.0000100000000000  1.2815099999999999  2.9686400000000002
  1.4093599999999999  2.1677399999999998  7.5713499999999998
  0.0003400000000000  0.6136700000000000  5.7490500000000004
  1.4095100000000000  1.5541300000000000 10.3895499999999998
  1.4097500000000001  5.8061699999999998  8.5024999999999995
  0.0002900000000000  4.4519299999999999 11.0869999999999997
