Mo  N Mo  N Mo  N Mo  N  H 
 1.0000000000000000
     4.9934599999999998    0.0000000000000000    0.0000000000000000
    -6.3573029641326633    7.7021600936769712    0.0000000000000000
     0.0000000000000000    0.0000000000000000   30.0394000000000005
 Mo  N   Mo  N   Mo  N   Mo  N   H  
   4   2   4   2   4   2   4   2   1
Cartesian
 -0.3075435550719678  2.4980800939827201  2.2992156759999998
 -2.8042870550728738  3.6746620698928143  3.2379469259999998
  4.8473426467006542  0.0688573112374721  0.5169780740000000
  2.3505991466997478  1.2454392871475664  1.4557093240000001
  1.3625091474031084  1.7110733756108074  3.2857095720000000
  0.6805464442246727  2.0324460055194793  0.4692154280000000
 -2.1582102037387738  3.3574229966066778  6.0069259702434445
  3.5810754649148886  0.6702836218211575  6.8560493245639540
  3.0033488349015709  0.9338681834921464  4.4004180014425884
  0.5246642045643405  2.0885297301171071  5.3149331777903370
 -0.5505101067286480  2.6362569195844916  7.0166184042208100
 -1.1289356050940871  2.8845666807526311  4.2608227676099473
 -3.4861950371382995  6.3491601408212057  2.2992156759999998
 -5.9829385371392050  7.5257421167312994  3.2379469259999998
  1.6686911646343225  3.9199373580759578  0.5169780740000000
 -0.8280523353665838  5.0965193339860519  1.4557093240000001
 -1.8161423346632233  5.5621534224492928  3.2857095720000000
 -2.4981050378416589  5.8835260523579649  0.4692154280000000
 -5.2705290013549124  7.2024809067215152  6.0034361280965509
  0.5039455768544450  4.4621733701269051  6.8291789746654930
 -0.1608807692377866  4.7776418620887560  4.4240349338491880
 -2.6439206296885867  5.9662781392662412  5.3348637288255212
 -3.7344739044189330  6.4383015421746146  7.0450471375356853
 -4.3072489847609070  6.7256473689931582  4.2629426699761410
  2.4959013627377504  1.1725723814652846  8.1295450337908477
