Mo  N  H 
 1.0000000000000000
     4.9934599999999998    0.0000000000000000    0.0000000000000000
     0.0000000000000000    6.0206999999999997    0.0000000000000000
     0.0000000000000000    0.0000000000000000   28.8216000000000001
 Mo  N   H  
  16   8   1
Cartesian
  2.9824899999999999  4.5155300000000000  2.4628100000000002
  1.1676700000000000  1.5051699999999999  0.0611000000000000
  3.6644000000000001  3.0103499999999999  0.0611000000000000
  0.4857600000000000  0.0000000000000000  2.4628100000000002
  4.9587100000000000  4.5155300000000000  4.7425899999999999
  3.1438799999999998  1.5051699999999999  2.3408899999999999
  0.6471500000000000  3.0103499999999999  2.3408899999999999
  2.4619800000000001  0.0000000000000000  4.7425899999999999
  1.5661000000000000  4.6041400000000001  7.3505000000000003
  4.8150199999999996  1.4906100000000000  4.8550800000000001
  2.3220999999999998  3.0185300000000002  4.8581899999999996
  4.0703899999999997  5.9443999999999999  7.3131100000000000
  3.3606799999999999  4.5940700000000003  9.3186499999999999
  1.8633900000000001  1.6068499999999999  7.1111500000000003
  4.3577100000000000  2.9035700000000002  7.0880599999999996
  0.9825800000000000  5.9873300000000000  9.3250399999999996
  1.4738700000000000  1.5051699999999999  3.6027000000000000
  4.6525100000000004  4.5155300000000000  1.2010000000000001
  3.9706000000000001  3.0103499999999999  3.6027000000000000
  2.1557800000000000  0.0000000000000000  1.2010000000000001
  0.1835900000000000  1.4683299999999999  8.3092500000000005
  3.2689800000000000  4.4888700000000004  5.9999000000000002
  2.6999599999999999  3.0350100000000002  8.3148499999999999
  0.7827600000000000  0.0170600000000000  6.0004999999999997
  2.3746800000000001  5.2348499999999998 10.7703000000000007
