Nb  N Nb  N Nb  N Nb  N  H 
 1.0000000000000000
     5.3445200000000002    0.0000000000000000    0.0000000000000000
    -1.7272608330669896   10.5485613301602754    0.0000000000000000
     0.0000000000000000    0.0000000000000000   29.2037000000000013
 Nb  N   Nb  N   Nb  N   Nb  N   H  
   4   5   4   5   4   5   4   5   1
Cartesian
  0.5399842468167518  3.1387771665958408  0.2239923790000000
  2.3342716259567071  0.5956772583141507  0.8816597030000001
  3.3395761415508747  3.6650976341641877  1.6397877550000000
  5.1338635206908290  1.1219977258824978  2.2971630419999998
 -0.2671513245129566  4.7675277787792378  1.2607237290000000
  4.1278568304558254  1.8809139707808786  0.5496136340000001
  4.1553601300076757  2.7792821964639787  3.4264701210000004
  3.2457726915878555  0.0140823293757640  2.7451478000000002
  1.5459909370517566  2.3798609216974600  1.9718338240000000
  2.2998338696902865  1.5552814547613407  3.7474726953192423
  3.2256929013417999  4.3046339757983514  4.6247165101034211
 -0.2338751434906811  1.9354691838947409  5.6311558505700265
  0.5947722708125057  5.0200630065080372  5.9071612951120605
  1.5950128358849780  3.2247846480402380  4.9814349647401190
  0.5263495488071531  0.5227160471009830  4.2069300323021492
  0.6927044672254987  1.1644392603356246  7.0477354648888353
  4.3843906689483312  3.7380271202697597  6.1902653641803882
  3.2924247918713867  0.7929415931641574  5.5623418601162244
 -0.3236461697167430  8.4130578316759781  0.2239923790000000
  1.4706412094232122  5.8699579233942885  0.8816597030000001
  2.4759457250173798  8.9393782992443249  1.6397877550000000
  4.2702331041573345  6.3962783909626353  2.2971630419999998
 -1.1307817410464516 10.0418084438593755  1.2607237290000000
  3.2642264139223305  7.1551946358610161  0.5496136340000001
  3.2917297134741808  8.0535628615441155  3.4264701210000004
  2.3821422750543606  5.2883629944559019  2.7451478000000002
  0.6823605205182618  7.6541415867775981  1.9718338240000000
  1.5030933904986810  6.9193381781509862  3.7356261036191958
  2.3849315971038578  9.6430441634736397  4.6276986912658833
 -1.0903478472349044  7.3511678996817178  5.5340979284468252
 -0.0673509900558197 10.1702957593681536  6.3583720113876936
  0.7187985780227242  8.5450717514213039  5.0113756060176380
 -0.2743203502636481  5.7092845583831888  4.2386381616527489
 -0.1827193971097536  6.4499501251507043  6.9203289739133380
  3.5360831757745768  9.1085068726808878  6.1926237797017025
  2.4751803408739863  6.0450862593528560  5.5310539590827865
  0.7042154572948246  9.5884760699127920  7.8514443850245472
