Sn Hg Sn Hg Sn Hg  H 
 1.0000000000000000
     6.8291225167241647    0.0000000000000000    0.0000000000000000
    -3.4145617583620469    5.9141935814708493    0.0000000000000000
     0.0000000000000000    0.0000000000000000   25.5759541900689875
 Sn  Hg  Sn  Hg  Sn  Hg  H  
   3   1   3   1   3   1   1
Cartesian
  0.0000000000000000  0.0000000000000000  9.9999992923310419
 -1.7072806791810375  2.9570967907354246  9.9999992923310419
  1.7072806791810375  2.9570967907354246  9.9999992923310419
  3.4145612583620824  0.0000000000000000  9.9999992923310419
  3.4145612583620824  1.9713978604902831 12.7879768950345074
  1.7072806791810375  4.9284947512257009 12.7879768950345074
 -1.7072806791810375  4.9284947512257009 12.7879768950345074
  0.0000000000000000  1.9713978604902831 12.7879768950345074
 -0.0001353999904182  3.9176176227623425 15.3989463102642947
  1.6856429807122704  0.9980155293735340 15.3993961102324626
  5.1432570360276397  0.9983712293483622 15.3988531102708901
  3.4147185583509505  3.9424591210043864 15.4307649080125913
  3.4147299583501440  3.9427888209810549 17.1553875859663911
