Rh  O  H 
 1.0000000000000000
     8.1758021771928640    0.0000000000000000    0.0000000000000000
     4.0879010885964320    7.0804523817651415    0.0000000000000000
     0.0000000000000000    0.0000000000000000   18.4503430160129547
 Rh  O   H  
  27   1   1
Cartesian
  1.3626336961988106  0.7867169313072379  7.0000000000000000
  4.0879010885964311  0.7867169313072379  7.0000000000000000
  6.8131684809940536  0.7867169313072379  7.0000000000000000
  2.7252673923976212  3.1468677252289514  7.0000000000000000
  5.4505347847952423  3.1468677252289514  7.0000000000000000
  8.1758021771928640  3.1468677252289514  7.0000000000000000
  4.0879010885964320  5.5070185191506660  7.0000000000000000
  6.8131684809940527  5.5070185191506660  7.0000000000000000
  9.5384358733916752  5.5070185191506660  7.0000000000000000
  0.0000000000000000  1.5734338626144757  9.2251715080064773
  2.7252673923976212  1.5734338626144757  9.2251715080064773
  5.4505347847952423  1.5734338626144757  9.2251715080064773
  1.3626336961988104  3.9335846565361892  9.2251715080064773
  4.0879010885964320  3.9335846565361892  9.2251715080064773
  6.8131684809940527  3.9335846565361892  9.2251715080064773
  2.7252673923976212  6.2937354504579028  9.2251715080064773
  5.4505347847952423  6.2937354504579028  9.2251715080064773
  8.1758021771928640  6.2937354504579028  9.2251715080064773
 -0.0025448488364599 -0.0013647057736072 11.3847304240928846
  2.7267345832788861 -0.0009112951854828 11.3843400312348813
  5.4517446364320863 -0.0191944076867210 11.3872692231726091
  1.3629902563625989  2.3624832187681113 11.3841035248560782
  4.0490392549307552  2.3369258081523507 11.4126601706733020
  6.8543724074611205  2.3388128688617504 11.4118892529657465
  2.7071711362458268  4.7292194551727533 11.3878077615136988
  5.4500571856576441  4.7670313591189277 11.4131795263822067
  8.1925898021112111  4.7315686221308741 11.3866924261998914
  5.4505347847952423  3.1468677252289514 12.9219383829432157
  5.4453149142228403  3.1419367395309163 13.8959859150152152
