 O Ir  O Ir  O Ir  O Ir  O  H  O Ir  O Ir  O Ir  O Ir  O 
 1.0000000000000000
     6.4402691878797533    0.0000000000000000    0.0000000000000000
     0.0000000000000000    6.3888795224627781    0.0000000000000000
     0.0000000000000000    0.0000000000000000   24.8805383757595067
 O   Ir  O   Ir  O   Ir  O   Ir  O   H   O   Ir  O   Ir  O   Ir  O   Ir  O  
   1   2   4   2   4   2   4   2   4   1   1   2   4   2   4   2   4   2   3
Cartesian
  6.4402691878797524  3.1944397612313891  6.0000000000000009
  3.2201345939398762  3.1944397612313886  7.2354012081059063
  6.4402691878797524  1.5972198806156943  7.2354012081059063
  3.2201345939398753  3.1944397612313886  9.2201345939398784
  6.4402691878797533  3.1944397612313886  8.4708024162118143
  4.4555358020457820  1.5972198806156943  7.2354012081059063
  1.9847333858339691  1.5972198806156943  7.2354012081059080
  6.4402691878797524  3.1944397612313882 10.4555358020457838
  3.2201345939398767  1.5972198806156939 10.4555358020457838
  6.4397266258279808  3.1951324023240355 12.4420153039739496
  3.2201345939398753  3.1944397612313882 11.6909370101516927
  1.2354012081059047  1.5972198806156939 10.4555358020457838
  5.2048679797738462  1.5972198806156939 10.4555358020457838
  3.2198335027896254  3.1945184743949766 13.6968405025539397
  6.4399784190389688  1.6104863781569878 13.6842215390423743
  3.2189828047608477  3.1922705435994687 15.6785988341337585
  6.4399062685223507  3.1928768518541095 14.9305150502088750
  4.4535339924588397  1.5994610798292093 13.6923750761246996
  1.9861747257398816  1.5995909008661349 13.6916141149281607
  6.4386785836646032  3.1911998963425536 16.9500767673697510
  3.2185665864642652  1.5970994807359598 16.9452004293901126
  6.4367982296207096  3.2984847714219745 18.8864911865907246
  3.2181240320567950  3.1933652886791482 18.1155953202303230
  1.2277122694733671  1.5854625973153238 16.9530820467080119
  5.2094710737029866  1.5854357274276181 16.9521530833475893
  6.4390928467065685  2.4142175067815832 19.3058940817507292
  6.4402691878797524  6.3888795224627781  6.0000000000000009
  3.2201345939398762  6.3888795224627781  7.2354012081059063
  6.4402691878797524  4.7916596418470832  7.2354012081059063
  3.2201345939398753  6.3888795224627781  9.2201345939398784
  6.4402691878797533  6.3888795224627781  8.4708024162118143
  4.4555358020457820  4.7916596418470832  7.2354012081059063
  1.9847333858339691  4.7916596418470832  7.2354012081059080
  6.4402691878797524  6.3888795224627772 10.4555358020457838
  3.2201345939398767  4.7916596418470832 10.4555358020457838
  6.4400188302717023  6.3896260789492203 12.4499910802656881
  3.2201345939398753  6.3888795224627772 11.6909370101516927
  1.2354012081059047  4.7916596418470832 10.4555358020457838
  5.2048679797738462  4.7916596418470832 10.4555358020457838
  3.2197839885699602  6.3890160996229328 13.6973255911760656
  6.4399331291451851  4.7795958439466242 13.6849452603427828
  3.2189688173913740  6.3897005725372278 15.6825372986412166
  6.4414821022966757  6.3910596263271584 14.9000161706691046
  4.4536094769731349  4.7899286139657189 13.6932688765350346
  1.9860548404291907  4.7897879209465044 13.6924911593990153
  6.4387041186064762  6.3796875157834867 16.8404673769624189
  3.2185712186042719  4.7897497889346159 16.9422740583965208
  3.2185551834860457  6.3879739603269128 18.1278770453825828
  1.2314526513839186  4.7960760687297572 16.9293787012776065
  5.2056684466501348  4.7962382369461753 16.9287239271224728
