Sc  O  H 
 1.0000000000000000
     9.7573044981697201    0.0000000000000000    0.0000000000000000
     4.8786522490848601    8.4500735678751493    0.0000000000000000
     0.0000000000000000    0.0000000000000000   19.3112038412175373
 Sc  O   H  
  27   1   1
Cartesian
  1.6262174163616199  0.9388970630972386  7.0000000000000009
  4.8786522490848592  0.9388970630972386  7.0000000000000009
  8.1310870818081007  0.9388970630972386  7.0000000000000009
  3.2524348327232397  3.7555882523889546  7.0000000000000009
  6.5048696654464795  3.7555882523889546  7.0000000000000009
  9.7573044981697201  3.7555882523889546  7.0000000000000009
  4.8786522490848601  6.5722794416806716  7.0000000000000009
  8.1310870818080989  6.5722794416806716  7.0000000000000009
 11.3835219145313395  6.5722794416806716  7.0000000000000009
  0.0000000000000000  1.8777941261944773  9.6556019206087669
  3.2524348327232397  1.8777941261944773  9.6556019206087669
  6.5048696654464795  1.8777941261944773  9.6556019206087669
  1.6262174163616196  4.6944853154861930  9.6556019206087669
  4.8786522490848601  4.6944853154861930  9.6556019206087669
  8.1310870818080989  4.6944853154861930  9.6556019206087669
  3.2524348327232397  7.5111765047779091  9.6556019206087669
  6.5048696654464795  7.5111765047779091  9.6556019206087669
  9.7573044981697201  7.5111765047779091  9.6556019206087669
 -0.0025325430496089  0.0034157275609862 12.2610471490471156
  3.2573305047649708  0.0022825955181114 12.2684659326277323
  6.5028270861651691 -0.0214676931354378 12.1694422242269358
  1.6280336030473428  2.8248122539007530 12.2717610653388469
  4.8946869157958339  2.8327610438800517 12.2833159132161462
  8.1126900013746557  2.8275642704648893 12.2883813541820679
  3.2314588422052362  5.6491599963126307 12.1637981806885609
  6.5074348941273907  5.6185362286077689 12.2847041502195271
  9.7795215614211610  5.6479157997794456 12.1722265533794243
  6.4989706976146140  3.7586035775198887 13.4763462416357580
  6.4957026235623090  3.7565885396009318 14.4533913936209100
