Cu  H 
 1.0000000000000000
     7.8085801846429996    0.0000000000000000    0.0000000000000000
     0.0000000000000000    7.8085801846429996    0.0000000000000000
     0.0000000000000000    0.0000000000000000   25.5214999999999996
 Cu  H  
  36   1
Cartesian
  1.3014300307738409  1.3014300307738409 10.0000000000000018
  3.9042900923215225  1.3014300307738409 10.0000000000000018
  6.5071501538692047  1.3014300307738409 10.0000000000000018
  1.3014300307738409  3.9042900923215225 10.0000000000000018
  3.9042900923215225  3.9042900923215225 10.0000000000000018
  6.5071501538692047  3.9042900923215225 10.0000000000000018
  1.3014300307738409  6.5071501538692047 10.0000000000000018
  3.9042900923215225  6.5071501538692047 10.0000000000000018
  6.5071501538692047  6.5071501538692047 10.0000000000000018
  0.0000000000000000  0.0000000000000000 11.8405000000000022
  2.6028600615476818  0.0000000000000000 11.8405000000000022
  5.2057201230953636  0.0000000000000000 11.8405000000000022
  0.0000000000000000  2.6028600615476818 11.8405000000000022
  2.6028600615476818  2.6028600615476818 11.8405000000000022
  5.2057201230953636  2.6028600615476818 11.8405000000000022
  0.0000000000000000  5.2057201230953636 11.8405000000000022
  2.6028600615476818  5.2057201230953636 11.8405000000000022
  5.2057201230953636  5.2057201230953636 11.8405000000000022
  1.2999423736881111  1.3005175396996893 13.6313645730553237
  3.9019923620903736  1.3010865005374970 13.6902372029318418
  6.5072896163114136  1.3002000154203226 13.6888918743183243
  1.3004406847870418  3.9010071616983035 13.6905462990203262
  3.8942533162595003  3.8933775696833055 13.7114072539341407
  6.5180038789994317  3.8922043770213444 13.7123427009418180
  1.2995093190718376  6.5073955423623131 13.6892075279706837
  3.8929441528928441  6.5182619191210414 13.7131939361512956
  6.5179305650737360  6.5180139944310076 13.7135600038985928
  0.0096158426992253  0.0096081112556149 15.5307265084489092
  2.5838858427603331  0.0118923496978979 15.5291912176821523
  5.2031756896570833  0.0017827079912632 15.4857309545992550
  0.0117640387489737  2.5837382918301306 15.5288700045496633
  2.5882713418309371  2.5878542715594124 15.5274905609365419
  5.2056623906071620  2.5998837227335900 15.4856001674910004
  0.0013340929504266  5.2028142065810812 15.4853425369716682
  2.5997250483021541  5.2049942996603189 15.4856897683014800
  5.2074646234327586  5.2069783087156161 15.4979758302015451
  1.2790473470147867  1.2762641356794073 16.1202071600386816
