Pd  H 
 1.0000000000000000
     8.4640766348799996    0.0000000000000000    0.0000000000000000
     0.0000000000000000    6.9108896330890000    0.0000000000000000
     0.0000000000000000    0.0000000000000000   28.5270961624089985
 Pd  H  
  36   1
Cartesian
  0.6950224489009856  1.1817844328962541 19.2472850403774167
  3.5356817277398753  1.1819869075401246 19.2473930486928140
  6.3473183878813559  1.1646056997690819 19.2008131154661932
  2.1156160699219471  5.7773485915614433 18.4619965851237531
  4.9363393449016906  5.7807556365989727 18.4551558464772683
  7.7584064413626059  5.7805983469313498 18.4552636821258815
  0.7009790668754230  3.4975993965281531 17.7291343518991091
  3.5303588497967753  3.4975045893349206 17.7289430494359763
  6.3474567233003487  3.4853064333650279 17.7218874265308308
  2.1158173895102550  1.1935090331377525 16.8324343906171414
  4.9354578077578948  1.1923437509032015 16.8155779657906876
  7.7598985604448725  1.1922877571282382 16.8155979265496391
  0.7034364607078500  5.7717826206850029 16.0209680278862372
  3.5281141815879864  5.7716784791048692 16.0205360444023661
  6.3476832859346466  5.7744611202450535 16.0246424201722206
  2.1160126085202888  3.4830541706131091 15.2217175474167234
  4.9386572955058794  3.4856374724006898 15.2227866484492989
  7.7569123014059906  3.4858895721230154 15.2229265833015468
  0.7053358539785870  1.1887540955280196 14.4090760902585711
  3.5266919109129113  1.1887540955280196 14.4090760902585711
  6.3480564319238608  1.1887540955280196 14.4090760902585711
  2.1160096504074306  5.7960161545508635 13.5946264794716036
  4.9373741714183872  5.7960161545508635 13.5946264794716036
  7.7587302283527100  5.7960161545508635 13.5946264794716036
  0.7053358539785870  3.4923816695946241 12.7801566329061913
  3.5266919109129113  3.4923816695946241 12.7801566329061913
  6.3480564319238608  3.4923816695946241 12.7801566329061913
  2.1160096504074306  1.1887540955280196 11.9657070221192203
  4.9373741714183872  1.1887540955280196 11.9657070221192203
  7.7587302283527100  1.1887540955280196 11.9657070221192203
  0.7053358539785870  5.7960161545508635 11.1512574113322547
  3.5266919109129113  5.7960161545508635 11.1512574113322547
  6.3480564319238608  5.7960161545508635 11.1512574113322547
  2.1160096504074306  3.4923816695946241 10.3367875647668406
  4.9373741714183872  3.4923816695946241 10.3367875647668406
  7.7587302283527100  3.4923816695946241 10.3367875647668406
  2.1150857522016100  1.4941739284826665 20.1555806480814823
