Re  O  H 
 1.0000000000000000
     8.3008699627803182    0.0000000000000000    0.0000000000000000
     4.1504349813901591    7.1887642612789406    0.0000000000000000
     0.0000000000000000    0.0000000000000000   18.5184212955571894
 Re  O   H  
  27   1   1
Cartesian
  1.3834783271300530  0.7987515845865488  7.0000000000000000
  4.1504349813901591  0.7987515845865488  7.0000000000000000
  6.9173916356502652  0.7987515845865488  7.0000000000000000
  2.7669566542601061  3.1950063383461953  7.0000000000000000
  5.5339133085202121  3.1950063383461953  7.0000000000000000
  8.3008699627803182  3.1950063383461953  7.0000000000000000
  4.1504349813901591  5.5912610921058423  7.0000000000000000
  6.9173916356502652  5.5912610921058423  7.0000000000000000
  9.6843482899103712  5.5912610921058423  7.0000000000000000
  0.0000000000000000  1.5975031691730976  9.2592106477785965
  2.7669566542601061  1.5975031691730976  9.2592106477785965
  5.5339133085202121  1.5975031691730976  9.2592106477785965
  1.3834783271300528  3.9937579229327440  9.2592106477785965
  4.1504349813901591  3.9937579229327440  9.2592106477785965
  6.9173916356502652  3.9937579229327440  9.2592106477785965
  2.7669566542601061  6.3900126766923906  9.2592106477785965
  5.5339133085202121  6.3900126766923906  9.2592106477785965
  8.3008699627803182  6.3900126766923906  9.2592106477785965
 -0.0133721379972651 -0.0031047401356707 11.4129477057061628
  2.7780999777505508 -0.0052942839631722 11.4117133994248281
  5.5347211082028478 -0.0209660139288464 11.3985990676717943
  1.3847441382284251  2.4127799766057594 11.4112943048616380
  4.1350419965943921  2.3907635478586640 11.4602234957832501
  6.9311611845234680  2.3877429039393610 11.4592851018082946
  2.7469712348659967  4.8068502273200826 11.3987904090466774
  5.5351805475085998  4.8143545435059325 11.4580600041938645
  8.3201374614288532  4.8043590032972352 11.3977483836149975
  5.5317203153393475  3.2000105014819233 12.9868292866005977
  5.5237976978359065  3.1889175578708238 13.9604949908607576
