Cd  O  H 
 1.0000000000000000
     9.7723805809824711    0.0000000000000000    0.0000000000000000
     4.8861902904912355    8.4631298385805493    0.0000000000000000
     0.0000000000000000    0.0000000000000000   19.3194102212644623
 Cd  O   H  
  27   1   1
Cartesian
  1.6287300968304117  0.9403477598422831  7.0000000000000009
  4.8861902904912347  0.9403477598422831  7.0000000000000009
  8.1436504841520598  0.9403477598422831  7.0000000000000009
  3.2574601936608234  3.7613910393691325  7.0000000000000009
  6.5149203873216468  3.7613910393691325  7.0000000000000009
  9.7723805809824711  3.7613910393691325  7.0000000000000009
  4.8861902904912355  6.5824343188959826  7.0000000000000009
  8.1436504841520581  6.5824343188959826  7.0000000000000009
 11.4011106778128823  6.5824343188959826  7.0000000000000009
  0.0000000000000000  1.8806955196845663  9.6597051106322311
  3.2574601936608234  1.8806955196845663  9.6597051106322311
  6.5149203873216468  1.8806955196845663  9.6597051106322311
  1.6287300968304115  4.7017387992114159  9.6597051106322311
  4.8861902904912355  4.7017387992114159  9.6597051106322311
  8.1436504841520581  4.7017387992114159  9.6597051106322311
  3.2574601936608234  7.5227820787382651  9.6597051106322311
  6.5149203873216468  7.5227820787382651  9.6597051106322311
  9.7723805809824711  7.5227820787382651  9.6597051106322311
  0.0100984836202528  0.0048966758011986 12.4592362369512664
  3.3537442594574021 -0.0527978766249557 12.8338829017556790
  6.5740174105485689 -0.0244652838871782 12.4472944426816721
  1.6277454209484488  2.8043246170711735 12.4590313437915032
  4.7599151298058713  2.5105374124979880 12.3781741752697076
  8.2112355751805826  2.7865162247370643 12.3848683359806504
  3.2618633524802711  5.6340639790926685 12.3857607990680716
  6.7216646610802631  5.9147000746319875 12.3834429311711762
  9.8252947389488696  5.6051527786701101 12.4469485701743725
  5.7005553389064412  4.2315649192902747 13.5570079382597672
  5.8743722986128901  4.1288636622209891 14.5124384580361401
