Mo  O  H 
 1.0000000000000000
     8.5081130166569849    0.0000000000000000    0.0000000000000000
     4.2540565083284925    7.3682420106940034    0.0000000000000000
     0.0000000000000000    0.0000000000000000   18.6312301254980710
 Mo  O   H  
  27   1   1
Cartesian
  1.4180188361094974  0.8186935567437781  6.9999999999999991
  4.2540565083284916  0.8186935567437781  6.9999999999999991
  7.0900941805474877  0.8186935567437781  6.9999999999999991
  2.8360376722189948  3.2747742269751123  6.9999999999999991
  5.6720753444379897  3.2747742269751123  6.9999999999999991
  8.5081130166569849  3.2747742269751123  6.9999999999999991
  4.2540565083284925  5.7308548972064477  6.9999999999999991
  7.0900941805474869  5.7308548972064477  6.9999999999999991
  9.9261318527664830  5.7308548972064477  6.9999999999999991
  0.0000000000000000  1.6373871134875562  9.3156150627490355
  2.8360376722189948  1.6373871134875562  9.3156150627490355
  5.6720753444379897  1.6373871134875562  9.3156150627490355
  1.4180188361094972  4.0934677837188902  9.3156150627490355
  4.2540565083284925  4.0934677837188902  9.3156150627490355
  7.0900941805474869  4.0934677837188902  9.3156150627490355
  2.8360376722189948  6.5495484539502247  9.3156150627490355
  5.6720753444379897  6.5495484539502247  9.3156150627490355
  8.5081130166569849  6.5495484539502247  9.3156150627490355
  0.6394746657256760  0.4205570261999194 11.4539466268973236
  3.4939894731138872  0.4005135887170286 11.4167693145249114
  6.2851597452746635  0.3783355011291276 11.4519088661237483
  1.8094969316871805  2.8720690713414818 11.4465899429315954
  4.5874153029530547  2.7146048415441011 12.1671783348123626
  7.2855516014338475  2.8089489135813150 11.5572461678566771
  3.5902222961516430  5.1814506171331383 11.4508588022293623
  6.3116256702090885  5.2167976494866402 11.5246770909743095
  9.1364747093400815  5.3024006682991747 11.5387509205289440
  4.2540565083284925  2.4560806702313345 14.0179448068577752
  3.7010024621013646  1.8551232498882342 14.5404089601293496
