Ru  O  H 
 1.0000000000000000
     8.1063672605763948    0.0000000000000000    0.0000000000000000
     4.0531836302881974    7.0203199800656257    0.0000000000000000
     0.0000000000000000    0.0000000000000000   18.4125474346700564
 Ru  O   H  
  27   1   1
Cartesian
  1.3510612100960657  0.7800355533406249  7.0000000000000000
  4.0531836302881965  0.7800355533406249  7.0000000000000000
  6.7553060504803293  0.7800355533406249  7.0000000000000000
  2.7021224201921314  3.1201422133624996  7.0000000000000000
  5.4042448403842629  3.1201422133624996  7.0000000000000000
  8.1063672605763948  3.1201422133624996  7.0000000000000000
  4.0531836302881974  5.4602488733843755  7.0000000000000000
  6.7553060504803284  5.4602488733843755  7.0000000000000000
  9.4574284706724612  5.4602488733843755  7.0000000000000000
  0.0000000000000000  1.5600711066812498  9.2062737173350282
  2.7021224201921314  1.5600711066812498  9.2062737173350282
  5.4042448403842629  1.5600711066812498  9.2062737173350282
  1.3510612100960655  3.9001777667031248  9.2062737173350282
  4.0531836302881974  3.9001777667031248  9.2062737173350282
  6.7553060504803284  3.9001777667031248  9.2062737173350282
  2.7021224201921314  6.2402844267249993  9.2062737173350282
  5.4042448403842629  6.2402844267249993  9.2062737173350282
  8.1063672605763948  6.2402844267249993  9.2062737173350282
 -0.0039651000854039 -0.0025134632943071 11.3004848895423695
  2.7062025930594102 -0.0020609543945981 11.3005704345021556
  5.4046007221977979 -0.0283725896841977 11.3059981920796595
  1.3511654697727489  2.3446152067619410 11.3005804487708179
  4.0407303462444641  2.3324213781178260 11.3350766196472108
  6.7688330576647058  2.3329957737515032 11.3344627245158787
  2.6770785303885298  4.6941772997861690 11.3060675187892432
  5.4040471677703996  4.6957444340990691 11.3348939296581559
  8.1309332016827316  4.6948645631445309 11.3060260857698900
  5.4042448403842629  3.1201422133624996 12.8952894192563043
  5.3991160784992029  3.1151998119696165 13.8684194976133881
