Rh  H 
 1.0000000000000000
     8.1883047144449996    0.0000000000000000    0.0000000000000000
     0.0000000000000000    6.6857228029379998    0.0000000000000000
     0.0000000000000000    0.0000000000000000   28.5270961624089985
 Rh  H  
  36   1
Cartesian
  0.6781696316247023  1.1132480965359264 18.5860232519826134
  3.4149831591387860  1.1139748129216720 18.5869772602326009
  6.1395912255594380  1.1150269543073288 18.5538559680318755
  2.0473318568099601  5.5974526284309736 17.8223297837154462
  4.7796585001836904  5.6006557965233297 17.8207072910147701
  7.5003901530207813  5.6007924139751353 17.8199343683686742
  0.6817305145979549  3.3892770806029664 17.1406008951489568
  3.4125691315055122  3.3892205449810762 17.1408878962261042
  6.1397074440779411  3.3782173903922299 17.1399389792757511
  2.0472632197230531  1.1534556601044481 16.2818285337432229
  4.7751722540765531  1.1548816636193531 16.2705667622806551
  7.5055086739199748  1.1549940846159577 16.2716311009972934
  0.6814138058611591  5.5802186467780848 15.4823131426416705
  3.4131130852160161  5.5803816708484879 15.4813666909205683
  6.1398927522993922  5.5796307045727582 15.4792982137645598
  2.0482061035268608  3.3637988902541553 14.7218430594937644
  4.7749670409496323  3.3627230980899299 14.7236377103562202
  7.5059736180421099  3.3631930526940885 14.7243360775235566
  0.6823549865557257  1.1500227590822443 13.9396074457138042
  3.4117871619357985  1.1500227590822443 13.9396074457138042
  6.1412275256205762  1.1500227590822443 13.9396074457138042
  2.0470669800934038  5.6071735229489548 13.1516937871579902
  4.7765073437781886  5.6071735229489548 13.1516937871579902
  7.5059395191582601  5.6071735229489548 13.1516937871579902
  0.6823549865557257  3.3785947981541975 12.3637605521348100
  3.4117871619357985  3.3785947981541975 12.3637605521348100
  6.1412275256205762  3.3785947981541975 12.3637605521348100
  2.0470669800934038  1.1500227590822443 11.5758468935789942
  4.7765073437781886  1.1500227590822443 11.5758468935789942
  7.5059395191582601  1.1500227590822443 11.5758468935789942
  0.6823549865557257  5.6071735229489548 10.7879332350231820
  3.4117871619357985  5.6071735229489548 10.7879332350231820
  6.1412275256205762  5.6071735229489548 10.7879332350231820
  2.0470669800934038  3.3785947981541975 10.0000000000000000
  4.7765073437781886  3.3785947981541975 10.0000000000000000
  7.5059395191582601  3.3785947981541975 10.0000000000000000
  2.0458713750391295  1.4921763964092378 19.6380076185777490
