Pt  O  H 
 1.0000000000000000
     8.4639464641914657    0.0000000000000000    0.0000000000000000
     4.2319732320957328    7.3299926542612841    0.0000000000000000
     0.0000000000000000    0.0000000000000000   18.6071888994451022
 Pt  O   H  
  27   1   1
Cartesian
  1.4106577440319108  0.8144436282512537  7.0000000000000009
  4.2319732320957320  0.8144436282512537  7.0000000000000009
  7.0532887201595544  0.8144436282512537  7.0000000000000009
  2.8213154880638216  3.2577745130050149  7.0000000000000009
  5.6426309761276432  3.2577745130050149  7.0000000000000009
  8.4639464641914657  3.2577745130050149  7.0000000000000009
  4.2319732320957328  5.7011053977587771  7.0000000000000009
  7.0532887201595535  5.7011053977587771  7.0000000000000009
  9.8746042082233760  5.7011053977587771  7.0000000000000009
  0.0000000000000000  1.6288872565025074  9.3035944497225493
  2.8213154880638216  1.6288872565025074  9.3035944497225493
  5.6426309761276432  1.6288872565025074  9.3035944497225493
  1.4106577440319106  4.0722181412562684  9.3035944497225493
  4.2319732320957328  4.0722181412562684  9.3035944497225493
  7.0532887201595535  4.0722181412562684  9.3035944497225493
  2.8213154880638216  6.5155490260100297  9.3035944497225493
  5.6426309761276432  6.5155490260100297  9.3035944497225493
  8.4639464641914657  6.5155490260100297  9.3035944497225493
  0.0003058491022563  0.0026224442054229 11.6522538340510700
  2.8193871650866318  0.0002224388509754 11.6505746907251293
  5.6425182399806078 -0.0221684271181601 11.6096157161215334
  1.4093630709553939  2.4428137061466306 11.6507847003471241
  4.1182847754603182  2.3767961235122965 11.5919415152554937
  7.1703111138488103  2.3778999404053982 11.5901180563172179
  2.8017551326255981  4.8991402619039555 11.6093818367938599
  5.6427336910402746  5.0221737090915504 11.5909186435758063
  8.4837630449220054  4.8996810686700991 11.6095328514272769
  5.6426309761276432  3.2577745130050149 12.9635384719896756
  5.6400567803940644  3.2519485234314360 13.9403191575668455
