Sn  O  H 
 1.0000000000000000
    10.3144825446578103    0.0000000000000000    0.0000000000000000
     5.1572412723289052    8.9326039105648221    0.0000000000000000
     0.0000000000000000    0.0000000000000000   19.6144931545012078
 Sn  O   H  
  27   1   1
Cartesian
  1.7190804241096349  0.9925115456183136  7.0000000000000000
  5.1572412723289043  0.9925115456183136  7.0000000000000000
  8.5954021205481759  0.9925115456183136  7.0000000000000000
  3.4381608482192698  3.9700461824732542  7.0000000000000000
  6.8763216964385396  3.9700461824732542  7.0000000000000000
 10.3144825446578103  3.9700461824732542  7.0000000000000000
  5.1572412723289052  6.9475808193281949  7.0000000000000000
  8.5954021205481741  6.9475808193281949  7.0000000000000000
 12.0335629687674448  6.9475808193281949  7.0000000000000000
  0.0000000000000000  1.9850230912366271  9.8072465772506039
  3.4381608482192698  1.9850230912366271  9.8072465772506039
  6.8763216964385396  1.9850230912366271  9.8072465772506039
  1.7190804241096347  4.9625577280915678  9.8072465772506039
  5.1572412723289052  4.9625577280915678  9.8072465772506039
  8.5954021205481741  4.9625577280915678  9.8072465772506039
  3.4381608482192698  7.9400923649465085  9.8072465772506039
  6.8763216964385396  7.9400923649465085  9.8072465772506039
 10.3144825446578103  7.9400923649465085  9.8072465772506039
  0.0351902957833257 -0.0291226721314800 12.4222831717005597
  3.4101502194029818  0.0181237285862153 12.4167865438299767
  6.8444465465039848  0.0221675342142205 12.3984143760948271
  1.7647905865269933  2.9607924626589384 12.4197440152076108
  5.1410648283366029  3.0142121228505880 12.6701379365225151
  8.6565224558775071  2.9418727568068266 12.3391114517114620
  3.3761196119039072  5.9902846968535330 12.3722784717208683
  6.8394533147067742  5.9532392875213320 12.6675633982502642
 10.2816672727710827  5.9737952280514754 12.3977586011883876
  6.0167814843837224  4.4663019552824110 14.2424168582896318
  5.9853337920474132  4.4809333940195932 15.2175583186016912
