Ag  O  H 
 1.0000000000000000
     8.9480798277558122    0.0000000000000000    0.0000000000000000
     4.4740399138779061    7.7492644459276168    0.0000000000000000
     0.0000000000000000    0.0000000000000000   18.8707177234873207
 Ag  O   H  
  27   1   1
Cartesian
  1.4913466379593019  0.8610293828808462  7.0000000000000000
  4.4740399138779052  0.8610293828808462  7.0000000000000000
  7.4567331897965099  0.8610293828808462  7.0000000000000000
  2.9826932759186038  3.4441175315233847  7.0000000000000000
  5.9653865518372076  3.4441175315233847  7.0000000000000000
  8.9480798277558122  3.4441175315233847  7.0000000000000000
  4.4740399138779061  6.0272056801659240  7.0000000000000000
  7.4567331897965090  6.0272056801659240  7.0000000000000000
 10.4394264657151137  6.0272056801659240  7.0000000000000000
  0.0000000000000000  1.7220587657616924  9.4353588617436586
  2.9826932759186038  1.7220587657616924  9.4353588617436586
  5.9653865518372076  1.7220587657616924  9.4353588617436586
  1.4913466379593017  4.3051469144042311  9.4353588617436586
  4.4740399138779061  4.3051469144042311  9.4353588617436586
  7.4567331897965090  4.3051469144042311  9.4353588617436586
  2.9826932759186038  6.8882350630467695  9.4353588617436586
  5.9653865518372076  6.8882350630467695  9.4353588617436586
  8.9480798277558122  6.8882350630467695  9.4353588617436586
 -0.0035225087057323  0.0024524890062717 11.8498305607523875
  2.9909994252612959  0.0017460832588716 11.8553617739039208
  5.9615709308337497 -0.0218583881539216 11.8330268091180457
  1.4927770510970479  2.5925977261160673 11.8562176707913434
  4.3550406450859311  2.5217031505992660 11.8569716515176218
  7.5695484939123956  2.5130187141290556 11.8596745513517785
  2.9639024012550106  5.1841139583446560 11.8294081823119726
  5.9668530423963766  5.3071505465473141 11.8553461749570062
  8.9684804466384698  5.1795947509563414 11.8349935850413832
  5.9591564257748768  3.4492830485788830 13.2475142910080645
  5.9575948956853724  3.4425363936847759 14.2216931186793030
