 O Ru  O Ru  O Ru  O Ru  O Ru  O Ru  O Ru  O Ru  O Ru  O Ru  O Ru  O Ru  O Ru  O Ru  O Ru  O Ru  O Ru  O Ru  O Ru  O Ru  O Ru  O  H 
 1.0000000000000000
     9.6572994068559943    0.0000000000000000   -3.2190998022853350
    -6.4381996045706629    9.4021630781460210    0.0000000000000000
     0.0000000000000000    0.0000000000000000   26.0347974166310863
 O   Ru  O   Ru  O   Ru  O   Ru  O   Ru  O   Ru  O   Ru  O   Ru  O   Ru  O   Ru  O   Ru  O   Ru  O   Ru  O   Ru  O   Ru  O   Ru  O   Ru  O   Ru  O   Ru  O   Ru  O   Ru  O   H  
   1   2   4   2   4   2   4   2   5   2   4   2   4   2   4   1   4   2   4   2   4   2   4   1   4   1   1   1   3   1   2   1   1   1   3   1   2   1   1   1   3   1   5   1
Cartesian
  0.0000000000000000  0.0000000000000000  5.3926113368509245
  3.2190998022853314  3.1340543593820063  6.6447037360542591
  0.0000000000000000  1.5670271796910034  6.6447037360542591
  3.2190998022853314  3.1340543593820063  8.6117111391362577
  0.0000000000000000  3.1340543593820063  7.8967961352575919
  4.4711922014886651  1.5670271796910034  6.6447037360542591
  1.9670074030819977  1.5670271796910034  6.6447037360542591
  0.0000000000000000  3.1340543593820058  9.8638035383395923
  3.2190998022853314  1.5670271796910029  9.8638035383395888
  0.0098039098438098  3.1431339594672454 11.8254565344900993
  3.2190998022853328  3.1340543593820058 11.1158959375429234
  1.2520923992033337  1.5670271796910029  9.8638035383395923
 -1.2520923992033337  1.5670271796910029  9.8638035383395923
  3.2308630823318167  3.0939718441590562 13.1162706497432673
  0.0037135569324392  1.5725598568889112 13.0877891478396897
  3.3122920417436403  2.9240434967828670 15.0055632286794083
 -0.0006028870929271  3.1273234319912682 14.3434966710279852
  4.4804280757292325  1.5224948478975640 13.0292053194595407
  1.9616273409856451  1.5489528012609119 13.0512103800109607
  0.0457297446438695  3.2886023870306604 16.3947526788253022
  3.3118217542438186  1.6713448221842615 16.4170974453669913
  0.1112958171638161  3.0780421970438607 18.0686314108776429
  3.2586526551963289  2.5644495684390138 17.8555985712468761
  1.3038511323166897  1.6246237764381297 16.1583955314840182
 -1.2021263656166445  1.5585513915939091 16.2582252852585896
  0.0000000000000000  3.1340543593820067  5.3926113368509245
  3.2190998022853314  6.2681087187640134  6.6447037360542591
  0.0000000000000000  4.7010815390730105  6.6447037360542591
  3.2190998022853314  6.2681087187640134  8.6117111391362577
  0.0000000000000000  6.2681087187640134  7.8967961352575919
  4.4711922014886651  4.7010815390730105  6.6447037360542591
  1.9670074030819977  4.7010815390730105  6.6447037360542591
  0.0000000000000000  6.2681087187640125  9.8638035383395923
  3.2190998022853314  4.7010815390730096  9.8638035383395888
  0.0131407229646515  6.2776604754720760 11.8332411199909568
  3.2190998022853328  6.2681087187640125 11.1158959375429234
  1.2520923992033337  4.7010815390730096  9.8638035383395923
 -1.2520923992033337  4.7010815390730096  9.8638035383395923
  3.2380749216264437  6.2748992442612765 13.2101102835177731
 -0.0002497028008495  4.7177003448898605 13.0903722885740166
  3.3514249018816180  6.3838999001209071 14.9012645629619751
 -0.0157012082763270  6.2752755291504361 14.2785961444252631
  4.4620742725674258  4.6829711119051467 13.0597748738348312
  1.9849303772784519  4.7023537621386593 13.1147340316652503
 -0.0044213864119846  6.3562712559995509 16.5544301247951715
 -0.1977288180039819  6.2366298328707837 18.2240823003523431
  1.1715911878143819  4.8353529229045247 16.1754908393122676
 -1.2600286656151320  4.7267143622152554 16.2173224109757825
  0.0000000000000000  6.2681087187640134  5.3926113368509245
  3.2190998022853314  9.4021630781460193  6.6447037360542591
  0.0000000000000000  7.8351358984550163  6.6447037360542591
  3.2190998022853314  9.4021630781460193  8.6117111391362577
  0.0000000000000000  9.4021630781460193  7.8967961352575919
  4.4711922014886651  7.8351358984550163  6.6447037360542591
  1.9670074030819977  7.8351358984550163  6.6447037360542591
  0.0000000000000000  9.4021630781460193  9.8638035383395923
  3.2190998022853314  7.8351358984550163  9.8638035383395888
  0.0089450416222580  9.3971165260405289 11.7936595154490185
  3.2190998022853328  9.4021630781460193 11.1158959375429234
  1.2520923992033337  7.8351358984550163  9.8638035383395923
 -1.2520923992033337  7.8351358984550163  9.8638035383395923
  3.2620660180949317  9.4597081790604278 13.1801472237870776
 -0.0030091560215611  7.8472815594615719 13.0919151255193320
  3.4839388147959820  9.3441079285068653 14.8510846373105014
  0.0212865571938946  9.3875284164437236 14.3554386299975167
  4.4941292695155468  7.8302108707181528 12.9131055270019317
  1.9836619038597816  7.8709067571920333 13.0539530143656552
  0.1261869072431412  9.5808877514377819 16.4628519018491559
 -0.2109605441060124  9.2704174030167330 18.1176856970915843
  1.1477771960002374  7.7748215718338205 16.3526889979957453
 -1.2622209932007600  7.8113462715836892 16.1714083060508784
  6.4381996045706629  0.0000000000000000  5.3926113368509245
  6.4381996045706629  1.5670271796910034  6.6447037360542591
  6.4381996045706629  3.1340543593820063  7.8967961352575919
  6.4436191733626087  3.1274682585185065  9.8467902814680208
  6.4421625822669615  3.1182776135339814 11.8067937781951109
  7.6993829553925588  1.5647161558047489  9.8570930861264081
  5.1907668407770853  1.5673414930844891  9.8628218178323284
  6.4563209730922253  1.5415783421240370 13.0846134487234806
  6.4627965928869955  3.1042500544733826 14.1527131475588668
  6.4381996045706629  3.1340543593820067  5.3926113368509245
  6.4381996045706629  4.7010815390730105  6.6447037360542591
  6.4381996045706629  6.2681087187640134  7.8967961352575919
  6.4410955425987293  6.2559992229858432  9.8450457457199274
  6.4278479341091384  6.2295233605499458 11.7854977246865236
  7.6963052172993436  4.6938940894317520  9.8448243946725409
  5.1872500672036015  4.6931944222765596  9.8445379785036202
  6.4197736688353126  4.6467039924675753 13.0484995446228318
  6.4313400017492741  6.2779988646623925 14.2926634250752151
  6.4381996045706629  6.2681087187640134  5.3926113368509245
  6.4381996045706629  7.8351358984550163  6.6447037360542591
  6.4381996045706629  9.4021630781460193  7.8967961352575919
  6.4406736479002591  9.3887121832449143  9.8346232166861078
  6.4473275757798856  9.3698685668402550 11.7601364426944741
  7.6920737250718370  7.8278977447551616  9.8392812315529365
  5.1845547588813989  7.8278496800515578  9.8341569589670872
  6.4470607521746981  7.8895966955695798 12.9936696159815845
  6.4377093261486031  9.3614537447025743 14.1386481573586220
  5.2179872178637670  1.4474179164823813 16.2253991234461488
  1.5337908375415050 10.5127632816921075 16.3394582715124663
  0.0000000000000000 -0.0000000000000009  7.8967961352575919
  3.2190998022853314 -0.0000000000000018  8.6117111391362577
  6.4276565202250708  6.2921090611334369 15.2582778233559200
