 O Ru  O Ru  O Ru  O Ru  O Ru  O Ru  O Ru  O Ru  O Ru  O Ru  O Ru  O Ru  O Ru  O Ru  O Ru  O Ru  O Ru  O Ru  O Ru  O Ru  O Ru  O  H 
 1.0000000000000000
     9.6572994068559943    0.0000000000000000   -3.2190998022853350
    -6.4381996045706629    9.4021630781460210    0.0000000000000000
     0.0000000000000000    0.0000000000000000   26.0347974166310863
 O   Ru  O   Ru  O   Ru  O   Ru  O   Ru  O   Ru  O   Ru  O   Ru  O   Ru  O   Ru  O   Ru  O   Ru  O   Ru  O   Ru  O   Ru  O   Ru  O   Ru  O   Ru  O   Ru  O   Ru  O   Ru  O   H  
   1   2   4   2   4   2   4   2   5   2   4   2   4   2   4   1   4   2   4   2   4   2   4   1   4   1   1   1   3   1   2   1   1   1   3   1   2   1   1   1   3   1   5   1
Cartesian
  0.0000000000000000  0.0000000000000000  5.3926113368509245
  3.2190998022853314  3.1340543593820063  6.6447037360542591
  0.0000000000000000  1.5670271796910034  6.6447037360542591
  3.2190998022853314  3.1340543593820063  8.6117111391362577
  0.0000000000000000  3.1340543593820063  7.8967961352575919
  4.4711922014886651  1.5670271796910034  6.6447037360542591
  1.9670074030819977  1.5670271796910034  6.6447037360542591
  0.0000000000000000  3.1340543593820058  9.8638035383395923
  3.2190998022853314  1.5670271796910029  9.8638035383395888
  0.0039248597586014  3.1372404905867404 11.8303481468575740
  3.2190998022853328  3.1340543593820058 11.1158959375429234
  1.2520923992033337  1.5670271796910029  9.8638035383395923
 -1.2520923992033337  1.5670271796910029  9.8638035383395923
  3.2230704439863613  3.0843790034631953 13.1281509910450200
 -0.0020512731940059  1.5709309292706723 13.0907435451412404
  3.2994944779331297  2.9041626025041887 15.0117862771877206
 -0.0095072532737923  3.1269799430635077 14.3336744857044369
  4.4772171524115851  1.5220836276741341 13.0313034774387653
  1.9578222578211353  1.5438239220347403 13.0482665446857098
  0.0457310014321236  3.2422130367946429 16.4435286858078626
  3.3165804027274968  1.6331742137249892 16.4300058352384326
  0.1474064446871712  3.0162215088961997 18.1094610830192870
  3.2994411045962191  2.5513077977682164 17.8491005092364823
  1.3030609834945572  1.5938710879555940 16.1531159472415027
 -1.2126320052498878  1.5629434474173010 16.2588058596085432
  0.0000000000000000  3.1340543593820067  5.3926113368509245
  3.2190998022853314  6.2681087187640134  6.6447037360542591
  0.0000000000000000  4.7010815390730105  6.6447037360542591
  3.2190998022853314  6.2681087187640134  8.6117111391362577
  0.0000000000000000  6.2681087187640134  7.8967961352575919
  4.4711922014886651  4.7010815390730105  6.6447037360542591
  1.9670074030819977  4.7010815390730105  6.6447037360542591
  0.0000000000000000  6.2681087187640125  9.8638035383395923
  3.2190998022853314  4.7010815390730096  9.8638035383395888
  0.0103196490743983  6.2772330453717977 11.8283644715451750
  3.2190998022853328  6.2681087187640125 11.1158959375429234
  1.2520923992033337  4.7010815390730096  9.8638035383395923
 -1.2520923992033337  4.7010815390730096  9.8638035383395923
  3.2249390642865725  6.2640820133028878 13.2214135130510382
  0.0023226346733740  4.7048329038936094 13.0828111060480445
  3.2737477578854537  6.3980388087039186 14.9089434485041554
  0.0119136639975557  6.2809147013632911 14.2982141517144168
  4.4360762181930395  4.6947173396543684 13.0839821841211368
  1.9765514741173591  4.6844956206362296 13.1111120827022720
 -0.0251752210761963  6.3252128401897725 16.3199294903561416
 -0.1515152246626610  6.2015214895118325 18.2280342432328375
  1.1530214985848275  4.7708876277141927 16.1755645822862206
 -1.2414122551184383  4.7075278032145063 16.2926768306231047
  0.0000000000000000  6.2681087187640134  5.3926113368509245
  3.2190998022853314  9.4021630781460193  6.6447037360542591
  0.0000000000000000  7.8351358984550163  6.6447037360542591
  3.2190998022853314  9.4021630781460193  8.6117111391362577
  0.0000000000000000  9.4021630781460193  7.8967961352575919
  4.4711922014886651  7.8351358984550163  6.6447037360542591
  1.9670074030819977  7.8351358984550163  6.6447037360542591
  0.0000000000000000  9.4021630781460193  9.8638035383395923
  3.2190998022853314  7.8351358984550163  9.8638035383395888
  0.0013347435805451  9.4139183925333505 11.8059157730610504
  3.2190998022853328  9.4021630781460193 11.1158959375429234
  1.2520923992033337  7.8351358984550163  9.8638035383395923
 -1.2520923992033337  7.8351358984550163  9.8638035383395923
  3.2449850255894077  9.4409034885733067 13.1800527324698482
 -0.0052209722301266  7.8602796469650515 13.0828217061030880
  3.4594271486662613  9.3473841241090945 14.8539937139055116
  0.0450939307630445  9.4067179227383662 14.3359508859374429
  4.4585942503977654  7.8113921133360709 12.9155674967963847
  1.9689994519629581  7.8758462731443766 13.0351829966575554
  0.1342086822998803  9.5280800528820375 16.5199970620009751
 -0.3880553415836395  9.3413283878166204 18.1481367857648728
  1.0826513595915288  7.8719297519590210 16.3892408125804536
 -1.3092671898444357  7.7745469160047413 16.1631145729025576
  6.4381996045706629  0.0000000000000000  5.3926113368509245
  6.4381996045706629  1.5670271796910034  6.6447037360542591
  6.4381996045706629  3.1340543593820063  7.8967961352575919
  6.4426570686241869  3.1292819481408736  9.8587811727927424
  6.4373071524516341  3.1509930631727880 11.8028803734694687
  7.6950198476706646  1.5636437438474269  9.8634720144503287
  5.1922823222967711  1.5688965502823349  9.8658906707861309
  6.4456499686810140  1.5616769306483844 13.0833777898184920
  6.4453394610884533  3.1370745147695795 14.1599661930489127
  6.4381996045706629  3.1340543593820067  5.3926113368509245
  6.4381996045706629  4.7010815390730105  6.6447037360542591
  6.4381996045706629  6.2681087187640134  7.8967961352575919
  6.4390031614074772  6.2482103353778875  9.8397421071452253
  6.4174240388588064  6.2008075924112385 11.7749865604617447
  7.6992057825815436  4.6923705322364704  9.8441226458875395
  5.1836448341678869  4.6893345324317846  9.8385793785711932
  6.4191008474646667  4.7067905765618798 13.1287288692404882
  6.3987134491307103  6.2676503951406994 14.1765188133090838
  6.4381996045706629  6.2681087187640134  5.3926113368509245
  6.4381996045706629  7.8351358984550163  6.6447037360542591
  6.4381996045706629  9.4021630781460193  7.8967961352575919
  6.4351787153518929  9.3828926175915743  9.8420998895974883
  6.4087092954905529  9.3299802289372060 11.7521418981522441
  7.6921496811651258  7.8236149185466104  9.8464602206383578
  5.1829671005984075  7.8202751675298252  9.8295647622217981
  6.4341832693832179  7.8399614927221970 13.0247888634781184
  6.4113521515369207  9.3301320369861234 14.1646232924117275
  5.1808748424835365  1.3780816775388931 16.1333525018197186
  1.5059297226431196 10.5256296828413287 16.4808850114248777
  0.0000000000000000 -0.0000000000000009  7.8967961352575919
  3.2190998022853314 -0.0000000000000018  8.6117111391362577
  0.3729234362365787  6.8721223561371438 18.6931896045123231
