 O Ru  O Ru  O Ru  O Ru  O Ru  O Ru  O Ru  O Ru  O Ru  O Ru  O Ru  O Ru  O Ru  O Ru  O Ru  O Ru  O Ru  O Ru  O Ru  O Ru  O Ru  O  H 
 1.0000000000000000
     9.6572994068559943    0.0000000000000000   -3.2190998022853350
    -6.4381996045706629    9.4021630781460210    0.0000000000000000
     0.0000000000000000    0.0000000000000000   26.0347974166310863
 O   Ru  O   Ru  O   Ru  O   Ru  O   Ru  O   Ru  O   Ru  O   Ru  O   Ru  O   Ru  O   Ru  O   Ru  O   Ru  O   Ru  O   Ru  O   Ru  O   Ru  O   Ru  O   Ru  O   Ru  O   Ru  O   H  
   1   2   4   2   4   2   4   2   5   2   4   2   4   2   4   1   4   2   4   2   4   2   4   1   4   1   1   1   3   1   2   1   1   1   3   1   2   1   1   1   3   1   5   1
Cartesian
  0.0000000000000000  0.0000000000000000  5.3926113368509245
  3.2190998022853314  3.1340543593820063  6.6447037360542591
  0.0000000000000000  1.5670271796910034  6.6447037360542591
  3.2190998022853314  3.1340543593820063  8.6117111391362577
  0.0000000000000000  3.1340543593820063  7.8967961352575919
  4.4711922014886651  1.5670271796910034  6.6447037360542591
  1.9670074030819977  1.5670271796910034  6.6447037360542591
  0.0000000000000000  3.1340543593820058  9.8638035383395923
  3.2190998022853314  1.5670271796910029  9.8638035383395888
  0.0052484739548564  3.1397543753537129 11.8321401467135292
  3.2190998022853328  3.1340543593820058 11.1158959375429234
  1.2520923992033337  1.5670271796910029  9.8638035383395923
 -1.2520923992033337  1.5670271796910029  9.8638035383395923
  3.2206055164680394  3.0749786893557745 13.1022716373138337
 -0.0012851462538493  1.5625754880503788 13.0841684027287659
  3.3469533270473435  2.8677867422073162 15.0067339420408050
  0.0222971518917243  3.0820549442420386 14.3911282340688036
  4.4799956326025265  1.5229139888975227 13.0177611439465917
  1.9531593494721542  1.5401305367215625 13.0430495763161431
 -0.0119765889773551  3.3899401013886767 16.3368240708898256
  3.5350665970244686  1.6426772583963254 16.3941117542624752
 -0.1243786408053296  3.1150015723440667 18.0054571993726817
  3.4357967811226144  2.5485502393464627 17.8389531200775657
  1.3526030853392634  1.6766684762288226 16.5033258612248659
 -1.2466491624611289  1.5034995146372152 16.2356934795566836
  0.0000000000000000  3.1340543593820067  5.3926113368509245
  3.2190998022853314  6.2681087187640134  6.6447037360542591
  0.0000000000000000  4.7010815390730105  6.6447037360542591
  3.2190998022853314  6.2681087187640134  8.6117111391362577
  0.0000000000000000  6.2681087187640134  7.8967961352575919
  4.4711922014886651  4.7010815390730105  6.6447037360542591
  1.9670074030819977  4.7010815390730105  6.6447037360542591
  0.0000000000000000  6.2681087187640125  9.8638035383395923
  3.2190998022853314  4.7010815390730096  9.8638035383395888
 -0.0009857161942763  6.2707726121541221 11.8308210742932314
  3.2190998022853328  6.2681087187640125 11.1158959375429234
  1.2520923992033337  4.7010815390730096  9.8638035383395923
 -1.2520923992033337  4.7010815390730096  9.8638035383395923
  3.2332467983910487  6.2396671425090151 13.2207853829695914
  0.0025231181630109  4.7257421242292414 13.0958936495850118
  3.3008450390715143  6.3882529416930511 14.9067637632134709
 -0.0060696233265556  6.2795406146733939 14.2711605369457644
  4.4309849475197476  4.6851083681454515 13.0760723822418381
  1.9763444803428618  4.6783813340101785 13.1168915150622745
 -0.0256022670219988  6.4042131284016541 16.6024630129021276
 -0.2122967152349595  6.2815476486837767 18.2630620185001078
  1.1525313913864774  4.8784341918016532 16.2159291583571594
 -1.2791520085390997  4.8239836690779168 16.1749341700561367
  0.0000000000000000  6.2681087187640134  5.3926113368509245
  3.2190998022853314  9.4021630781460193  6.6447037360542591
  0.0000000000000000  7.8351358984550163  6.6447037360542591
  3.2190998022853314  9.4021630781460193  8.6117111391362577
  0.0000000000000000  9.4021630781460193  7.8967961352575919
  4.4711922014886651  7.8351358984550163  6.6447037360542591
  1.9670074030819977  7.8351358984550163  6.6447037360542591
  0.0000000000000000  9.4021630781460193  9.8638035383395923
  3.2190998022853314  7.8351358984550163  9.8638035383395888
 -0.0104857091985282  9.4062706370546678 11.8028484419789024
  3.2190998022853328  9.4021630781460193 11.1158959375429234
  1.2520923992033337  7.8351358984550163  9.8638035383395923
 -1.2520923992033337  7.8351358984550163  9.8638035383395923
  3.1657412297785568  9.3685266445490356 13.1587750206666811
 -0.0308509262811095  7.8463796570969615 13.0925501246029903
  3.4726410653867381  9.3293089505598079 14.8328321659856819
  0.0526752982703672  9.3969722655762808 14.3448539641910724
  4.4695650937467200  7.8020779615355460 12.9107562030072707
  1.9496576213551466  7.8457418602039395 13.0364310418881253
  0.2599286766054793  9.5780483831933534 16.4349444198049568
 -0.1791321674298481  9.2927435171969783 18.0710983800464646
  1.1734037109606994  7.7894476367743932 16.3654473956927866
 -1.2405299478878631  7.8224476283561222 16.1189476802091178
  6.4381996045706629  0.0000000000000000  5.3926113368509245
  6.4381996045706629  1.5670271796910034  6.6447037360542591
  6.4381996045706629  3.1340543593820063  7.8967961352575919
  6.4418790133053347  3.1272934234085752  9.8541239216969032
  6.4322036668225122  3.1516150099129101 11.7952273310941962
  7.6950071373972930  1.5633466120135047  9.8644427378533752
  5.1913887109257999  1.5687998680344484  9.8621101750126581
  6.4557554209008270  1.5699464036882957 13.0732236460837434
  6.4598073040577217  3.1537171424610668 14.1383599422856214
  6.4381996045706629  3.1340543593820067  5.3926113368509245
  6.4381996045706629  4.7010815390730105  6.6447037360542591
  6.4381996045706629  6.2681087187640134  7.8967961352575919
  6.4337308005941916  6.2522924498407875  9.8365535764315499
  6.3911891817900033  6.2315693556328382 11.7638501904877000
  7.6959555118268757  4.6939756900300802  9.8500082047998418
  5.1830839006948608  4.6892140527600397  9.8351511059102421
  6.3952578945499043  4.7316754759480730 13.1019388144223470
  6.4232955170911294  6.2819394688145893 14.1757733573805353
  6.4381996045706629  6.2681087187640134  5.3926113368509245
  6.4381996045706629  7.8351358984550163  6.6447037360542591
  6.4381996045706629  9.4021630781460193  7.8967961352575919
  6.4332435686388401  9.3934614004471211  9.8396729502345739
  6.4525761811716276  9.3927728244720754 11.7759164742155686
  7.6779507723356293  7.8297005101704844  9.8471055218453021
  5.1836042145892591  7.8337316082156327  9.8383354019507205
  6.4502786427104732  7.8538214353806390 13.0249608499212144
  6.5585108849749059  9.3430956217376870 14.1566780801865750
  5.3710402466640135  1.5022099277060483 16.1792225008623944
  1.6718156782410432 10.5032299202114690 16.3528710287511458
  0.0000000000000000 -0.0000000000000009  7.8967961352575919
  3.2190998022853314 -0.0000000000000018  8.6117111391362577
  1.3539889304473827  1.6721485821859232 17.4792634013604555
