Mo  Y Mo  Y Mo  Y  H 
 1.0000000000000000
     5.9067995819940995    0.0000000000000000    0.0000000000000000
    -2.9533997909970497    5.7523515929239055    0.0000000000000000
     0.0000000000000000    0.0000000000000000   25.0688282259567181
 Mo  Y   Mo  Y   Mo  Y   H  
   2   2   2   2   2   2   1
Cartesian
  0.0000000000000000  0.0000000000000000  9.9999992923310419
  2.9533999909970357  0.0000000000000000  9.9999992923310419
  1.4766999954985178  2.8761755964619669  9.9999992923310419
 -1.4766999954985178  2.8761755964619669  9.9999992923310419
  2.9533999909970357  1.5163488926926882 12.5344139129783745
  0.0000000000000000  1.5163488926926882 12.5344139129783745
 -1.4766999954985178  4.3925244891546553 12.5344139129783745
  1.4766999954985178  4.3925244891546553 12.5344139129783745
 -0.0017121998788329  2.7951044021991240 14.7419261567595736
  2.9571580907310868  2.7919855024198390 14.6212812652972399
  4.4351683861368789  0.2361712832868902 15.3129063163530788
  1.4721891958177331  0.2370055832278494 15.3126831163688735
  0.0000231999983582  3.0412609847793859 16.5372511297099898
