Ni  H 
 1.0000000000000000
     6.1373966639999997    0.0000000000000000    0.0000000000000000
     0.0000000000000000    7.5167450880000004    0.0000000000000000
     0.0000000000000000    0.0000000000000000   27.2336319389999986
 Ni  H  
  36   1
Cartesian
  4.0756100000000002  1.2602300000000000 17.5274199999999993
  4.0763900000000000  3.7484899999999999 17.5309300000000015
  4.0724700000000000  6.2642600000000002 17.4849999999999994
  2.0610800000000000  7.5160799999999997 16.8364900000000013
  2.0522900000000002  2.5058500000000001 16.8317499999999995
  2.0617899999999998  5.0124300000000002 16.8375200000000014
  0.0248000000000000  1.2491300000000001 16.2078699999999998
  0.0243000000000000  3.7631899999999998 16.2090099999999993
  0.0186400000000000  6.2642699999999998 16.2124699999999997
  4.1252199999999997  0.0059900000000000 15.4132400000000001
  4.1242200000000002  2.5066799999999998 15.4125300000000003
  4.1246600000000004  5.0048899999999996 15.4151399999999992
  2.0438499999999999  1.2528200000000000 14.6925100000000004
  2.0433300000000001  3.7590400000000002 14.6935699999999994
  2.0463800000000001  6.2642199999999999 14.6957299999999993
  0.0022600000000000  7.5158800000000001 13.9863800000000005
  0.0033200000000000  2.5059000000000000 13.9844899999999992
  0.0020100000000000  5.0120399999999998 13.9868000000000006
  4.0915999999999997  1.2527900000000001 13.2551699999999997
  4.0915999999999997  3.7583700000000002 13.2551699999999997
  4.0915999999999997  6.2639500000000004 13.2551699999999997
  2.0457999999999998  0.0000000000000000 12.5318699999999996
  2.0457999999999998  2.5055800000000001 12.5318699999999996
  2.0457999999999998  5.0111600000000003 12.5318699999999996
  0.0000000000000000  1.2527900000000001 11.8085699999999996
  0.0000000000000000  3.7583700000000002 11.8085699999999996
  0.0000000000000000  6.2639500000000004 11.8085699999999996
  4.0915999999999997  0.0000000000000000 11.0852699999999995
  4.0915999999999997  2.5055800000000001 11.0852699999999995
  4.0915999999999997  5.0111600000000003 11.0852699999999995
  2.0457999999999998  1.2527900000000001 10.3619699999999995
  2.0457999999999998  3.7583700000000002 10.3619699999999995
  2.0457999999999998  6.2639500000000004 10.3619699999999995
  0.0000000000000000  0.0000000000000000  9.6386699999999994
  0.0000000000000000  2.5055800000000001  9.6386699999999994
  0.0000000000000000  5.0111600000000003  9.6386699999999994
  4.1454899999999997  2.5029499999999998 18.5753200000000014
