Pd  H 
 1.0000000000000000
    11.2446539560000005    0.0000000000000000    0.0000000000000000
     0.0000000000000000   11.2446539560000005    0.0000000000000000
     0.0000000000000000    0.0000000000000000   27.5917924079999999
 Pd  H  
  64   1
Cartesian
  1.4055800000000001  1.4055800000000001 10.8142099999999992
  4.2167399999999997  1.4055800000000001 10.8142099999999992
  7.0278999999999998  1.4055800000000001 10.8142099999999992
  9.8390699999999995  1.4055800000000001 10.8142099999999992
  1.4055800000000001  4.2167399999999997 10.8142099999999992
  4.2167399999999997  4.2167399999999997 10.8142099999999992
  7.0278999999999998  4.2167399999999997 10.8142099999999992
  9.8390699999999995  4.2167399999999997 10.8142099999999992
  1.4055800000000001  7.0278999999999998 10.8142099999999992
  4.2167399999999997  7.0278999999999998 10.8142099999999992
  7.0278999999999998  7.0278999999999998 10.8142099999999992
  9.8390699999999995  7.0278999999999998 10.8142099999999992
  1.4055800000000001  9.8390699999999995 10.8142099999999992
  4.2167399999999997  9.8390699999999995 10.8142099999999992
  7.0278999999999998  9.8390699999999995 10.8142099999999992
  9.8390699999999995  9.8390699999999995 10.8142099999999992
  0.0000000000000000  0.0000000000000000 12.8019999999999996
  2.8111600000000001  0.0000000000000000 12.8019999999999996
  5.6223299999999998  0.0000000000000000 12.8019999999999996
  8.4334900000000008  0.0000000000000000 12.8019999999999996
  0.0000000000000000  2.8111600000000001 12.8019999999999996
  2.8111600000000001  2.8111600000000001 12.8019999999999996
  5.6223299999999998  2.8111600000000001 12.8019999999999996
  8.4334900000000008  2.8111600000000001 12.8019999999999996
  0.0000000000000000  5.6223299999999998 12.8019999999999996
  2.8111600000000001  5.6223299999999998 12.8019999999999996
  5.6223299999999998  5.6223299999999998 12.8019999999999996
  8.4334900000000008  5.6223299999999998 12.8019999999999996
  0.0000000000000000  8.4334900000000008 12.8019999999999996
  2.8111600000000001  8.4334900000000008 12.8019999999999996
  5.6223299999999998  8.4334900000000008 12.8019999999999996
  8.4334900000000008  8.4334900000000008 12.8019999999999996
  1.4111100000000001  1.4098400000000000 14.7777600000000007
  4.2224300000000001  1.4115800000000001 14.7855200000000000
  7.0216900000000004  1.4122500000000000 14.7855500000000006
  9.8355399999999999  1.4093000000000000 14.7766900000000003
  1.4121500000000000  4.2123799999999996 14.7779799999999994
  4.2234400000000001  4.2112699999999998 14.7878399999999992
  7.0204500000000003  4.2103900000000003 14.7881599999999995
  9.8344400000000007  4.2129799999999999 14.7769200000000005
  1.4084500000000000  7.0256999999999996 14.7720000000000002
  4.2212300000000003  7.0231399999999997 14.7797300000000007
  7.0231100000000000  7.0227700000000004 14.7797999999999998
  9.8361499999999999  7.0258000000000003 14.7718799999999995
  1.4077400000000000  9.8407699999999991 14.7719600000000000
  4.2211600000000002  9.8427500000000006 14.7780900000000006
  7.0231300000000001  9.8430800000000005 14.7781599999999997
  9.8368800000000007  9.8406500000000001 14.7718000000000007
 11.2445599999999999 11.2443100000000005 16.7332800000000006
  2.8032400000000002 11.2359399999999994 16.7363800000000005
  5.6223200000000002  0.0238500000000000 16.7517700000000005
  8.4413699999999992 11.2367799999999995 16.7355200000000011
  0.0023500000000000  2.8115700000000001 16.7337699999999998
  2.8362099999999999  2.8106700000000000 16.7545700000000011
  5.6254600000000003  2.8121600000000000 16.8562000000000012
  8.4145599999999998  2.8107600000000001 16.7496800000000015
 11.2445500000000003  5.6225600000000000 16.7314100000000003
  2.8026300000000002  5.6303099999999997 16.7399999999999984
  5.6223900000000002  5.6010200000000001 16.7551600000000001
  8.4420300000000008  5.6295400000000004 16.7392099999999999
 11.2446300000000008  8.4329999999999998 16.7293400000000005
  2.8106100000000001  8.4333299999999998 16.7347800000000007
  5.6223999999999998  8.4351000000000003 16.7384200000000014
  8.4339399999999998  8.4333299999999998 16.7341699999999989
  5.5559099999999999  2.7561399999999998 18.4059300000000015
