Cr  W Cr  W Cr  W  H 
 1.0000000000000000
     5.2471556286750589    0.0000000000000000    0.0000000000000000
     1.7516768760392563    4.9461366499772383    0.0000000000000000
     0.0000000000000000    0.0000000000000000   24.2850842814198487
 Cr  W   Cr  W   Cr  W   H  
   2   2   2   2   2   2   1
Cartesian
  0.0000000000000000  0.0000000000000000  9.9999992923310419
  3.4994164523571429  2.4730683249886192  9.9999992923310419
  2.6235778143375295  0.0000000000000000  9.9999992923310419
  0.8758386380196139  2.4730683249886192  9.9999992923310419
  5.2471555286750657  3.7082109375814043 12.1425421407099243
  1.7477391763179151  1.2351426125927851 12.1425421407099243
  2.6235778143375295  3.7082109375814043 12.1425421407099243
  4.3713168906554509  1.2351426125927851 12.1425421407099243
  3.4976917524791946  2.4718443250752378 14.2210329936215683
  6.9971064048364653  4.9449151500636797 14.1525674984666594
  6.1212151668205736  2.4713974251068636 14.2686071902548903
  4.3730520905326564  4.9450422500546853 14.2689128902332563
  3.4943726527140773  2.4695111252403512 15.8752700765563368
