Ga Zr Ga Zr Ga Zr  H 
 1.0000000000000000
     5.8533875857739011    0.0000000000000000    0.0000000000000000
    -2.9266937928869505    5.0691816412697257    0.0000000000000000
     0.0000000000000000    0.0000000000000000   24.7792692464479138
 Ga  Zr  Ga  Zr  Ga  Zr  H  
   3   1   3   1   3   1   1
Cartesian
  0.0000000000000000  0.0000000000000000  9.9999992923310419
 -1.4633467964434823  2.5345910206348488  9.9999992923310419
  1.4633467964434823  2.5345910206348488  9.9999992923310419
  2.9266935928869646  0.0000000000000000  9.9999992923310419
  2.9266935928869646  1.6897272804232371 12.3896346232239569
  1.4633467964434823  4.2243183010580863 12.3896346232239569
 -1.4633467964434823  4.2243183010580863 12.3896346232239569
  0.0000000000000000  1.6897272804232371 12.3896346232239569
 -0.0001139999919326  3.2859282674650401 15.1997466243610386
  1.5143702928327076  0.7394525476712349 14.9240954438680173
  4.3389079929489283  0.7395985476609029 14.9235696439052283
  2.9266452928903828  3.3410085635671782 14.5934641672657701
  0.0001244999911895  2.9279105928008415 16.7736802129786362
