Mo Re Mo Re Mo Re  H 
 1.0000000000000000
     5.6379396010204879    0.0000000000000000    0.0000000000000000
    -2.8189698005102439    4.8825996544735544    0.0000000000000000
     0.0000000000000000    0.0000000000000000   24.6033572588966578
 Mo  Re  Mo  Re  Mo  Re  H  
   3   1   3   1   3   1   1
Cartesian
  0.0000000000000000  0.0000000000000000  9.9999993012675947
 -1.4094849002551220  2.4412998272367772  9.9999993012675947
  1.4094849002551220  2.4412998272367772  9.9999993012675947
  2.8189698005102439  0.0000000000000000  9.9999993012675947
  2.8189698033292139  1.6275332165303182 12.3016786294483289
  1.4094849030740919  4.0688330437670954 12.3016786294483289
 -1.4094848974361520  4.0688330437670954 12.3016786294483289
  0.0000000028189697  1.6275332165303182 12.3016786294483289
  0.2078307304252436  3.3358363788803977 14.5545058759027999
  1.5831914233563795  0.9533674489621403 14.5545390412283844
  4.4759595896112323  0.9566108964388115 14.5668156736401428
  3.0233839254424200  3.3729329697489869 14.4621765864804068
  0.1936977407612908  4.9944822381511704 15.6089102823895889
