Mo Rh Mo Rh Mo Rh  H 
 1.0000000000000000
     5.5957576040055770    0.0000000000000000    0.0000000000000000
    -2.7978788020027885    4.8460686570587397    0.0000000000000000
     0.0000000000000000    0.0000000000000000   24.5689152613340092
 Mo  Rh  Mo  Rh  Mo  Rh  H  
   3   1   3   1   3   1   1
Cartesian
  0.0000000000000000  0.0000000000000000  9.9999991298377502
 -1.3989394010013942  2.4230343285293698  9.9999991298377502
  1.3989394010013942  2.4230343285293698  9.9999991298377502
  2.7978788020027885  0.0000000000000000  9.9999991298377502
  2.7978788048006673  1.6153562174042237 12.2844576306670046
  1.3989394037992731  4.0383905459335931 12.2844576306670046
 -1.3989393982035156  4.0383905459335931 12.2844576306670046
  0.0000000027978787  1.6153562174042237 12.2844576306670046
 -0.0015838903813292  3.2631850104342157 14.4452889123939379
  1.4302069724465092  0.7896255991627635 14.4503306503568876
  4.1679040757070087  0.7928141621109798 14.4452888141182783
  2.7912210619355431  3.2345564963874920 14.5470336305674302
  0.0029023543943484  1.6136809605458904 15.5539583389985516
