 W Mo  W Mo  W Mo  W Mo  W Mo  W  H 
 1.0000000000000000
     5.9516385788209831    0.0000000000000000    0.0000000000000000
     2.3888628309475810    4.7674556626219387    0.0000000000000000
     0.0000000000000000    0.0000000000000000   24.6147372580913313
 W   Mo  W   Mo  W   Mo  W   Mo  W   Mo  W   H  
   1   1   1   2   1   1   1   1   1   1   1   1
Cartesian
  0.6074744382591426  1.1867234971689200  9.9999993795840378
  3.5832937276696342  1.1867234971689200  9.9999993795840378
  1.8019058537329331  3.5704513284798893  9.9999993795840378
  4.7777251431434244  3.5704513284798893  9.9999993795840378
  2.3888625757419630  1.7852256666236728 12.3073686290456656
  5.3646818651524555  1.7852256666236728 12.3073686290456656
  3.5832939912157533  4.1689534979346421 12.3073686290456656
  6.5591132806262458  4.1689534979346421 12.3073686290456656
  0.0027158329503099 -0.0095104447427833 14.6407870149643617
  2.9948865984888888 -0.0095434927454366 14.5603200604423773
  1.2037599949313260  2.3873876783018613 14.6408190633522732
  4.1305543844959276  2.4036206741348627 14.5509507560819316
  0.5618924531082725  1.2096198513626319 15.9558140426113191
