Cr Cu Cr Cu Cr Cu Cr Cu  H 
 1.0000000000000000
     5.3139906239453527    0.0000000000000000    0.0000000000000000
     2.2113288435111111    4.3141606947002185    0.0000000000000000
     0.0000000000000000    0.0000000000000000   24.1625972900878736
 Cr  Cu  Cr  Cu  Cr  Cu  Cr  Cu  H  
   1   2   2   1   1   2   2   1   1
Cartesian
  3.3169933544851862  1.0236097127845181  9.9999991790816907
  0.6599980425125099  1.0236097127845181  9.9999991790816907
  1.7656624642680656  3.1806900601346273  9.9999991790816907
  4.4226577762407420  3.1806900601346273  9.9999991790816907
  2.2113288843577115  1.5903450279102334 12.0812986450439368
  4.8683241963303878  1.5903450279102334 12.0812986450439368
  3.3169933061132668  3.7474253752603426 12.0812986450439368
  5.9739886180859427  3.7474253752603426 12.0812986450439368
  2.6470609570379349  0.0049172027049268 14.2148385886886466
  0.0114772816293533 -0.0495427730768885 14.0502944422807960
  1.1525739026732662  2.1767251239805865 14.0502885949322511
  3.7577150012329690  2.1597978112867366 14.2403596555235783
  0.5395358948969878  1.0853688990147499 15.2986249730021591
