Cr Cu Cr Cu Cr Cu  H 
 1.0000000000000000
     5.1062466386467502    0.0000000000000000    0.0000000000000000
    -2.5531238193233401    4.4221396870588796    0.0000000000000000
     0.0000000000000000    0.0000000000000000   24.1692312896184056
 Cr  Cu  Cr  Cu  Cr  Cu  H  
   3   1   3   1   3   1   1
Cartesian
  0.0000000000000000  0.0000000000000000  9.9999990955868689
 -1.2765619096616700  2.2110698435294398  9.9999990955868689
  1.2765614096617051  2.2110698435294398  9.9999990955868689
  2.5531233193233751  0.0000000000000000  9.9999990955868689
  2.5531231552098435  1.4740465608789133 12.0846156448092028
  1.2765612455481734  3.6851164044083533 12.0846156448092028
 -1.2765620737752017  3.6851164044083533 12.0846156448092028
 -0.0000001641135315  1.4740465608789133 12.0846156448092028
 -0.0542345592041393  2.9849938786391941 14.0727822904625661
  1.2661386256928715  0.6767980693875383 14.0736209144498527
  3.7005088934831072  0.6709383363096134 14.0206667329250827
  2.4894404272373238  2.9139496795248325 14.3539497496086881
 -1.1766484004563824  3.7470849135787740 15.2445631793844836
