Cr Al Cr Al Cr Al  H 
 1.0000000000000000
     5.2040046317287212    0.0000000000000000    0.0000000000000000
    -2.6020018158643956    4.5067996810677542    0.0000000000000000
     0.0000000000000000    0.0000000000000000   24.2490502839698614
 Cr  Al  Cr  Al  Cr  Al  H  
   3   1   3   1   3   1   1
Cartesian
  0.0000000000000000  0.0000000000000000  9.9999993072123523
 -1.3010009079321978  2.2533998405338771  9.9999993072123523
  1.3010014079321628  2.2533998405338771  9.9999993072123523
  2.6020023158643606  0.0000000000000000  9.9999993072123523
  2.6020024851330179  1.5022665588536515 12.1245251419849307
  1.3010015772008199  3.7556663993875286 12.1245251419849307
 -1.3010007386635407  3.7556663993875286 12.1245251419849307
  0.0000001692686571  1.5022665588536515 12.1245251419849307
 -0.1453908631512031  3.0012544254461258 14.1497475997323612
  1.2254799576817588  0.6268588979063386 14.1497367846559339
  3.7194242339929633  0.6451377428044014 14.1126057658953101
  2.4741484357092136  2.9307282293114461 14.5062861146223749
 -0.1154694878765148  4.4401482104656722 15.2561509421053092
