Ta La Ta La Ta La Ta  H 
 1.0000000000000000
     6.2657755565904827    0.0000000000000000    0.0000000000000000
     3.1328877782952413    5.4263206159961070    0.0000000000000000
     0.0000000000000000    0.0000000000000000   25.1159822226197775
 Ta  La  Ta  La  Ta  La  Ta  H  
   1   1   3   1   3   1   2   1
Cartesian
  0.0000000000000000  0.0000000000000000  9.9999991490059319
  1.5664438891476207  2.7131603079980535  9.9999991490059319
  3.1328877782952413  0.0000000000000000  9.9999991490059319
  4.6993316674428618  2.7131603079980535  9.9999991490059319
  6.2657755597233713  3.6175470791395115 12.5579911113098888
  4.6993316705757504  0.9043867711414580 12.5579911113098888
  3.1328877814281295  3.6175470791395115 12.5579911113098888
  1.5664438922805086  0.9043867711414580 12.5579911113098888
  2.9685226255503414  1.9035527945752202 14.8278599598866876
  4.8886355655666520  4.4125668900449879 15.6875572260551053
  6.5405754452574660  1.8041806773819338 14.8965124628976593
  7.9735149464841957  4.2860956028900441 14.8964724782539619
  2.7366248811987544  5.6550451198490812 15.9769407602341200
