Mo Sc Mo Sc Mo Sc  H 
 1.0000000000000000
     5.8029445893435962    0.0000000000000000    0.0000000000000000
    -2.9014727946717627    5.0254976443611064    0.0000000000000000
     0.0000000000000000    0.0000000000000000   24.7380832493625178
 Mo  Sc  Mo  Sc  Mo  Sc  H  
   3   1   3   1   3   1   1
Cartesian
  0.0000000000000000  0.0000000000000000  9.9999993049488065
 -1.4507363973358813  2.5127488221805532  9.9999993049488065
  1.4507358973359168  2.5127488221805532  9.9999993049488065
  2.9014722946717981  0.0000000000000000  9.9999993049488065
  2.9014721309066154  1.6751658797785363 12.3690416246812589
  1.4507357335707343  4.1879147019590892 12.3690416246812589
 -1.4507365611010636  4.1879147019590892 12.3690416246812589
 -0.0000001637651824  1.6751658797785363 12.3690416246812589
  0.1421151439712229  3.3732675629247026 14.6382306999004861
  1.5417144208895455  0.9489946017937011 14.6381029771766684
  4.0617625960224135  0.6696463047367063 14.5192375014248949
  3.0190961297601833  3.4180476818265846 15.0805912663779402
 -1.0886932075467368  4.3968563197723309 15.7964074956648428
