Pt  O  H 
 1.0000000000000000
     8.4639464641914657    0.0000000000000000    0.0000000000000000
     4.2319732320957328    7.3299926542612841    0.0000000000000000
     0.0000000000000000    0.0000000000000000   18.6071888994451022
 Pt  O   H  
  27   1   1
Cartesian
  1.4106577440319108  0.8144436282512537  7.0000000000000009
  4.2319732320957320  0.8144436282512537  7.0000000000000009
  7.0532887201595544  0.8144436282512537  7.0000000000000009
  2.8213154880638216  3.2577745130050149  7.0000000000000009
  5.6426309761276432  3.2577745130050149  7.0000000000000009
  8.4639464641914657  3.2577745130050149  7.0000000000000009
  4.2319732320957328  5.7011053977587771  7.0000000000000009
  7.0532887201595535  5.7011053977587771  7.0000000000000009
  9.8746042082233760  5.7011053977587771  7.0000000000000009
  0.0000000000000000  1.6288872565025074  9.3035944497225493
  2.8213154880638216  1.6288872565025074  9.3035944497225493
  5.6426309761276432  1.6288872565025074  9.3035944497225493
  1.4106577440319106  4.0722181412562684  9.3035944497225493
  4.2319732320957328  4.0722181412562684  9.3035944497225493
  7.0532887201595535  4.0722181412562684  9.3035944497225493
  2.8213154880638216  6.5155490260100297  9.3035944497225493
  5.6426309761276432  6.5155490260100297  9.3035944497225493
  8.4639464641914657  6.5155490260100297  9.3035944497225493
 -0.0911401053461096  0.0601682088250204 11.6504868408110607
  2.7328374365987340  0.0542212805281103 11.6266773548310578
  5.5491360964418011  0.0573044303011001 11.6333883914367231
  1.3103977951882539  2.4974601401500309 11.6532816201933311
  4.0774306775684570  2.4917994574553117 11.6516665427296484
  7.0373245536010307  2.4511500264613484 11.5742326962396618
  2.6627485426076429  4.9790371615227560 11.5943533746901650
  5.5274492632302685  4.9962064674303912 11.6499960533342897
  8.3675103889384452  4.9412690582699330 11.6342957444759261
  4.9373021041116880  3.6649963271306421 13.2803759078873007
  4.1905716089845138  4.0985803554480444 13.7462752024573085
