Co Al Co Al Co Al Co  H 
 1.0000000000000000
     4.9409036503475612    0.0000000000000000    0.0000000000000000
     1.6480478833727590    4.6579466703715502    0.0000000000000000
     0.0000000000000000    0.0000000000000000   24.0345592991487251
 Co  Al  Co  Al  Co  Al  Co  H  
   1   2   2   2   2   2   1   1
Cartesian
  0.0000000000000000  0.0000000000000000  9.9999990973367989
  0.8240239416863795  2.3289733351857751  9.9999990973367989
  2.4704518251737806  0.0000000000000000  9.9999990973367989
  3.2944757668601601  2.3289733351857751  9.9999990973367989
  4.9409034003311874  3.4928872104186603 12.0172796495743626
  4.1168794586448074  1.1639138752328853 12.0172796495743626
  2.4704515751574063  3.4928872104186603 12.0172796495743626
  1.6464276334710268  1.1639138752328853 12.0172796495743626
  3.3362774102935795  2.2594796075533536 13.9903157987731390
  4.0555112223675280  4.6138205674688528 14.1094102126622492
  5.8290931917065718  2.3746302676037434 14.1223867836771291
  6.5377375750430460  4.7203832547944122 13.9899153830152141
  4.3729762124338976  1.3447784090618897 15.0089704826114190
