Pt  H  O 
 1.0000000000000000
    16.0340999999999987    0.0000000000000000    0.0000000000000000
     0.0000000000000000   16.0340999999999987    0.0000000000000000
     0.0000000000000000    0.0000000000000000   50.0000000000000000
 Pt  H   O  
  72 150  48
Cartesian
  1.5510200000000001  1.3832199999999999 19.6973300000000009
  0.2450900000000000  0.0759800000000000 21.7344900000000010
  1.5510600000000001  4.0663000000000000 19.7024800000000013
  0.2206900000000000  2.7365699999999999 21.6691800000000008
  4.2336499999999999  1.3823399999999999 19.7024599999999985
  2.9068000000000001  0.0542900000000000 21.6704499999999989
  4.2360699999999998  4.0679200000000000 19.7102399999999989
  2.8495900000000001  2.6829499999999999 21.6206899999999997
  1.5510200000000001  6.7279200000000001 19.6973300000000009
  0.2450900000000000  5.4206799999999999 21.7344900000000010
  1.5510600000000001  9.4109999999999996 19.7024800000000013
  0.2206900000000000  8.0812700000000000 21.6691800000000008
  4.2336499999999999  6.7270399999999997 19.7024599999999985
  2.9068000000000001  5.3989900000000004 21.6704499999999989
  4.2360699999999998  9.4126200000000004 19.7102399999999989
  2.8495900000000001  8.0276499999999995 21.6206899999999997
  1.5510200000000001 12.0726200000000006 19.6973300000000009
  0.2450900000000000 10.7653800000000004 21.7344900000000010
  1.5510600000000001 14.7556999999999992 19.7024800000000013
  0.2206900000000000 13.4259699999999995 21.6691800000000008
  4.2336499999999999 12.0717400000000001 19.7024599999999985
  2.9068000000000001 10.7436900000000009 21.6704499999999989
  4.2360699999999998 14.7573200000000000 19.7102399999999989
  2.8495900000000001 13.3723500000000008 21.6206899999999997
  6.8957199999999998  1.3832199999999999 19.6973300000000009
  5.5897899999999998  0.0759800000000000 21.7344900000000010
  6.8957600000000001  4.0663000000000000 19.7024800000000013
  5.5653899999999998  2.7365699999999999 21.6691800000000008
  9.5783500000000004  1.3823399999999999 19.7024599999999985
  8.2515000000000001  0.0542900000000000 21.6704499999999989
  9.5807699999999993  4.0679200000000000 19.7102399999999989
  8.1942900000000005  2.6829499999999999 21.6206899999999997
  6.8957199999999998  6.7279200000000001 19.6973300000000009
  5.5897899999999998  5.4206799999999999 21.7344900000000010
  6.8957600000000001  9.4109999999999996 19.7024800000000013
  5.5653899999999998  8.0812700000000000 21.6691800000000008
  9.5783500000000004  6.7270399999999997 19.7024599999999985
  8.2515000000000001  5.3989900000000004 21.6704499999999989
  9.5807699999999993  9.4126200000000004 19.7102399999999989
  8.1942900000000005  8.0276499999999995 21.6206899999999997
  6.8957199999999998 12.0726200000000006 19.6973300000000009
  5.5897899999999998 10.7653800000000004 21.7344900000000010
  6.8957600000000001 14.7556999999999992 19.7024800000000013
  5.5653899999999998 13.4259699999999995 21.6691800000000008
  9.5783500000000004 12.0717400000000001 19.7024599999999985
  8.2515000000000001 10.7436900000000009 21.6704499999999989
  9.5807699999999993 14.7573200000000000 19.7102399999999989
  8.1942900000000005 13.3723500000000008 21.6206899999999997
 12.2404200000000003  1.3832199999999999 19.6973300000000009
 10.9344900000000003  0.0759800000000000 21.7344900000000010
 12.2404600000000006  4.0663000000000000 19.7024800000000013
 10.9100900000000003  2.7365699999999999 21.6691800000000008
 14.9230499999999999  1.3823399999999999 19.7024599999999985
 13.5961999999999996  0.0542900000000000 21.6704499999999989
 14.9254700000000007  4.0679200000000000 19.7102399999999989
 13.5389900000000001  2.6829499999999999 21.6206899999999997
 12.2404200000000003  6.7279200000000001 19.6973300000000009
 10.9344900000000003  5.4206799999999999 21.7344900000000010
 12.2404600000000006  9.4109999999999996 19.7024800000000013
 10.9100900000000003  8.0812700000000000 21.6691800000000008
 14.9230499999999999  6.7270399999999997 19.7024599999999985
 13.5961999999999996  5.3989900000000004 21.6704499999999989
 14.9254700000000007  9.4126200000000004 19.7102399999999989
 13.5389900000000001  8.0276499999999995 21.6206899999999997
 12.2404200000000003 12.0726200000000006 19.6973300000000009
 10.9344900000000003 10.7653800000000004 21.7344900000000010
 12.2404600000000006 14.7556999999999992 19.7024800000000013
 10.9100900000000003 13.4259699999999995 21.6691800000000008
 14.9230499999999999 12.0717400000000001 19.7024599999999985
 13.5961999999999996 10.7436900000000009 21.6704499999999989
 14.9254700000000007 14.7573200000000000 19.7102399999999989
 13.5389900000000001 13.3723500000000008 21.6206899999999997
  0.5262900000000000  1.5929100000000000 22.8128099999999989
  1.7678700000000001  0.3657000000000000 22.8136499999999991
  4.1423500000000004  2.5761099999999999 22.6967900000000000
  4.1773499999999997  0.2219400000000000 22.7856300000000012
  0.3743700000000000  4.0111800000000004 22.7838799999999999
  2.7604600000000001  3.9736600000000002 22.7088700000000010
  0.6453400000000000  6.9694300000000000 22.7829900000000016
  1.7206300000000001  5.6263399999999999 22.8091200000000001
  4.1347100000000001  7.9063699999999999 22.6997600000000013
  4.1771300000000000  5.5757399999999997 22.7684600000000010
  0.3858500000000000  9.3664900000000006 22.7809400000000011
  2.7507500000000000  9.3217499999999998 22.7021799999999985
  0.5664400000000001 12.2622400000000003 22.7916099999999986
  1.7876000000000001 11.0345700000000004 22.8359899999999989
  4.1429200000000002 13.2710699999999999 22.6962000000000010
  4.1870099999999999 10.9035100000000007 22.7793899999999994
  0.4282700000000000 14.7126400000000004 22.7685899999999997
  2.7480600000000002 14.6643500000000007 22.7052699999999987
  5.7828700000000000  1.5703800000000001 22.8201000000000001
  7.0409899999999999  0.3110900000000000 22.7900799999999997
  9.4964200000000005  2.6350899999999999 22.6919800000000009
  9.5474099999999993  0.1494300000000000 22.7690699999999993
  5.7295299999999996  4.0156200000000002 22.7810799999999993
  8.0682500000000008  3.9734400000000001 22.6995499999999986
  5.9205699999999997  6.9568099999999999 22.8045900000000010
  7.1255100000000002  5.7067899999999998 22.8200800000000008
  9.4549000000000003  8.0862599999999993 22.7182299999999984
  9.5255700000000001  5.5581800000000001 22.7836700000000008
  5.6768000000000001  9.3530499999999996 22.7799399999999999
  5.8937700000000000 12.2455400000000001 22.7793099999999988
  7.1068199999999999 10.8479200000000002 22.8316799999999986
  9.4806299999999997 13.2662399999999998 22.7015700000000002
  9.4804399999999998 10.8148000000000000 22.8014000000000010
  5.7085499999999998 14.7047799999999995 22.7840999999999987
  8.0876699999999992 14.6528600000000004 22.7028999999999996
 11.1760400000000004  1.5539099999999999 22.7978899999999989
 12.4282299999999992  0.3243200000000000 22.8010899999999985
 14.8528500000000001  2.5294400000000001 22.6650600000000004
 14.8832299999999993  0.2090900000000000 22.7821700000000007
 11.0765600000000006  4.0181100000000001 22.7798300000000005
 13.4156099999999991  3.9808599999999998 22.6925199999999982
 11.1529799999999994  6.9042899999999996 22.8069799999999994
 12.4254400000000000  5.6808600000000000 22.7977300000000014
 14.8335000000000008  7.9009000000000000 22.6940700000000000
 14.8833000000000002  5.5670299999999999 22.7799399999999999
 11.2083399999999997  9.3331499999999998 22.7411999999999992
 13.4666499999999996  9.3154599999999999 22.7055299999999995
 11.1280099999999997 12.2457899999999995 22.8079299999999989
 12.3978599999999997 10.9945299999999992 22.7798499999999997
 14.8235299999999999 13.1909399999999994 22.6820400000000006
 14.8892000000000007 10.8872699999999991 22.7813599999999994
 11.0710099999999994 14.6916399999999996 22.7879199999999997
 13.4188500000000008 14.6610499999999995 22.7000500000000009
  8.4832099999999997 15.1045099999999994 26.9112100000000005
  6.9629500000000002 15.3414999999999999 27.0449100000000016
 14.1934100000000001 10.4796300000000002 25.6292299999999997
 14.8895900000000001  9.7925000000000004 26.8444299999999991
  0.5675200000000000 11.1401699999999995 25.4738900000000008
  1.9929600000000001 10.6018799999999995 25.6995700000000014
 11.0522399999999994  3.6219999999999999 25.7787100000000002
  9.9416600000000006  2.5313300000000001 25.8553199999999990
  5.7757800000000001  5.5343799999999996 28.1408300000000011
  5.2810800000000002  6.1979600000000001 26.8109700000000011
  7.2624199999999997  1.8396600000000001 27.0710900000000017
  6.3864999999999998  3.0545300000000002 27.5087900000000012
  9.8134200000000007  3.9330300000000000 28.1290900000000015
 10.0186299999999999  5.1423399999999999 29.0617500000000000
  3.5511100000000000  2.8143300000000000 25.1317400000000006
  2.2752100000000000  3.4629200000000000 25.8328400000000009
 15.2836499999999997 14.0170300000000001 24.3386500000000012
 14.6637400000000007 14.9250200000000000 25.4623500000000007
  8.4032499999999999 12.6677599999999995 29.3196599999999989
  7.2063300000000003 12.6227300000000007 28.3363799999999983
  7.0131300000000003 12.3114200000000000 24.9752800000000015
  7.9001799999999998 11.0435400000000001 25.0977299999999985
 13.5423200000000001  5.9321299999999999 25.1568100000000001
 13.1689600000000002  4.8196599999999998 26.1776200000000010
 14.8639200000000002  8.1269100000000005 25.4122599999999998
 15.7585400000000000  7.0550100000000002 24.7251599999999989
 11.7842199999999995  1.9610200000000000 27.5509500000000003
 12.9935100000000006  1.0290500000000000 27.2541000000000011
  7.7472799999999999  8.1623400000000004 25.0770699999999991
  7.6511300000000002  8.9847500000000000 23.7288199999999989
 10.7655200000000004  9.8612800000000007 28.3215100000000000
 12.3234800000000000  9.5732400000000002 28.2308599999999998
  0.9856200000000001  6.8844099999999999 27.9321699999999993
 15.9185700000000008  6.4192700000000000 26.8832099999999983
 11.7744199999999992 11.8297399999999993 28.3599999999999994
 12.2986400000000007 12.4306999999999999 27.0254000000000012
 11.1395099999999996  7.8080999999999996 29.0272599999999983
 10.9957799999999999  6.9055400000000002 27.7528199999999998
  1.9704100000000000  8.7281499999999994 27.9774799999999999
  0.6040600000000000  8.7772299999999994 28.7474699999999999
  5.0043899999999999 11.4250500000000006 25.6328700000000005
  4.1449199999999999 12.6400699999999997 25.0456199999999995
  4.6123300000000000  3.2132499999999999 28.8120399999999997
  5.8483499999999999  3.6268799999999999 29.7160200000000003
  8.5163700000000002  1.5052900000000000 24.0655399999999986
  8.3702600000000000  0.7761500000000000 25.4602399999999989
  9.0235900000000004 13.0404800000000005 26.0796099999999988
 10.2407400000000006 13.2361100000000000 27.0996300000000012
 10.4177999999999997  0.0943400000000000 24.8643399999999986
 10.5782799999999995 14.7337900000000008 25.5431199999999983
  1.6035999999999999  6.5273399999999997 25.8376799999999989
  2.7553399999999999  6.5884000000000000 24.7824199999999983
  5.1192000000000002  5.6645099999999999 24.6122499999999995
  3.9148200000000002  4.9090999999999996 25.3019199999999991
  1.9237200000000001 13.0862300000000005 25.6556399999999982
  1.1203700000000001 14.3770299999999995 25.5344000000000015
  6.0545000000000000  9.5007599999999996 25.3589500000000001
  5.7578500000000004  9.6111000000000004 26.8759499999999996
  3.0425700000000000 15.1432500000000001 26.5138999999999996
  4.4363500000000000 15.2035099999999996 27.2234200000000008
 14.0449400000000004  4.5796299999999999 28.1637500000000003
 13.4985099999999996  3.0949000000000000 27.8303200000000004
 13.9912700000000001  2.9473099999999999 24.3052099999999989
 14.4508200000000002  3.1114000000000002 25.7815599999999989
 12.0246200000000005 10.9889700000000001 25.1341099999999997
 12.9348399999999994 12.1106200000000008 24.4925400000000018
 15.2257400000000001 13.2795799999999993 27.2768900000000016
 14.5456000000000003 13.6875199999999992 28.5963799999999999
 10.1838800000000003  9.7324500000000000 24.4388599999999983
 10.0646299999999993  9.9050200000000004 25.9899999999999984
 13.8832400000000007  6.0652400000000002 30.0762000000000000
 12.7841400000000007  6.4628699999999997 29.0226399999999991
 10.8584599999999991  7.7775699999999999 25.6419800000000002
 11.4901300000000006  6.3090799999999998 25.7136299999999984
  8.4876799999999992  9.3999500000000005 27.6852499999999999
  8.7886100000000003 10.8948699999999992 27.8844799999999999
  5.0927699999999998 13.4675999999999991 28.4069000000000003
  5.3812899999999999 13.1768999999999998 26.8819899999999983
  6.3617499999999998  7.9053399999999998 28.1088500000000003
  6.5036500000000004  9.1306200000000004 29.1020099999999999
 12.6303000000000001 15.9004100000000008 25.4618299999999991
 13.8377700000000008  0.9387400000000000 25.3646999999999991
  3.4113699999999998  1.3380500000000000 28.1128500000000017
  2.5072100000000002  2.5972200000000001 28.2929700000000004
  5.4708199999999998  1.9760700000000000 25.6619999999999990
  4.3593500000000001  0.8791400000000000 25.6692399999999985
  3.6831600000000000  9.2654499999999995 26.2028199999999991
  2.4133800000000001  8.4189200000000000 25.7898999999999994
 14.4053100000000001  9.5784900000000004 29.4189200000000000
 14.3489299999999993  8.0853000000000002 28.9156599999999990
  0.2414000000000000  3.0977199999999998 27.4227699999999999
  1.0054000000000001  4.4387200000000000 27.4727099999999993
  8.8942300000000003  6.4913200000000000 25.8105599999999988
  7.4278199999999996  6.3580300000000003 26.4067299999999996
 12.7657299999999996 15.7492300000000007 29.0107800000000005
 12.4327500000000004 14.2436500000000006 28.7690100000000015
  8.1942900000000005  6.7276499999999997 22.6206899999999997
  7.7963300000000002 15.8192299999999992 26.8766900000000000
 14.9402200000000001  9.8751899999999999 25.8692099999999989
  1.5035000000000001 11.3761600000000005 25.3079299999999989
 10.5892300000000006  3.0379399999999999 26.4035399999999996
  5.9057300000000001  6.3303700000000003 27.5741599999999991
  6.7543699999999998  2.5926000000000000 26.7166299999999985
  9.5427199999999992  4.2925199999999997 28.9976100000000017
  2.9487700000000001  3.6157100000000000 25.1330999999999989
 15.3274500000000007 14.1952400000000001 25.2944999999999993
  7.8343400000000001 12.0468399999999995 28.8341400000000014
  7.9249099999999997 12.0203000000000007 25.1674000000000007
 12.8309099999999994  5.2793799999999997 25.3676099999999991
 14.9579900000000006  7.1456000000000000 25.2786299999999997
 12.6125000000000007  1.6194400000000000 27.9581300000000006
  7.6077000000000004  9.0959400000000006 24.7118199999999995
 11.6102200000000000  9.8262800000000006 28.8457800000000013
  0.7157600000000000  6.1305199999999997 27.3197699999999983
 11.7138100000000005 12.6269799999999996 27.7916400000000010
 11.1846099999999993  6.8730000000000002 28.7340699999999991
  1.4540100000000000  8.2919400000000003 28.7016999999999989
  4.9987599999999999 12.4120500000000007 25.4546899999999994
  5.4235499999999996  3.8088400000000000 28.8620699999999992
  8.9995899999999995  1.2830600000000001 24.8886900000000004
  9.5584500000000006 13.7197399999999998 26.5638599999999983
 11.0742300000000000 15.4094999999999995 25.0117499999999993
  1.8779399999999999  6.9792100000000001 24.9952299999999994
  4.4328599999999998  5.7846500000000001 25.2938499999999991
  2.0547200000000001 14.0694999999999997 25.6144199999999991
  5.3484800000000003  9.8104700000000005 25.9944500000000005
  3.7015099999999999 15.7751300000000008 26.9272700000000000
 14.0252099999999995  3.8744700000000001 27.4806500000000007
 14.5165000000000006  2.5153900000000000 25.0064099999999989
 12.7982399999999998 11.5838199999999993 25.3026300000000006
 15.0413499999999996 12.9519500000000001 28.1765900000000009
 10.7084600000000005  9.6971000000000007 25.2609600000000007
 13.7754100000000008  6.3262200000000002 29.1454300000000011
 10.7331699999999994  6.8810900000000004 26.0296599999999998
  9.2025199999999998 10.0602400000000003 27.5340300000000013
  5.7238499999999997 13.6664999999999992 27.6934600000000017
  6.6895199999999999  8.8478100000000008 28.1911899999999989
 13.5366300000000006  0.1044300000000000 25.8099799999999995
  3.3073399999999999  2.1494599999999999 28.6549799999999983
  4.7366799999999998  1.5994699999999999 25.1048399999999994
  2.7113900000000002  9.1792700000000007 26.3635899999999985
 14.6164199999999997  9.0061000000000000 28.6617899999999999
  1.1447400000000001  3.4584899999999998 27.3752999999999993
  7.9397599999999997  6.6094700000000000 25.6030499999999996
 13.0008400000000002 14.8441899999999993 29.2927999999999997
