Pt  H 
 1.0000000000000000
     5.3446999999999996    0.0000000000000000    0.0000000000000000
     0.0000000000000000    5.3446999999999996    0.0000000000000000
     0.0000000000000000    0.0000000000000000   29.6689000000000007
 Pt  H  
  16   5
Cartesian
  1.3361700000000001  1.3361700000000001 11.9998799999999992
  0.0000000000000000  0.0000000000000000 13.8895000000000000
  1.3308000000000000  1.3296699999999999 15.7779299999999996
  0.0393000000000000 -0.0016000000000000 17.8157500000000013
  1.3361700000000001  4.0085199999999999 11.9998799999999992
  0.0000000000000000  2.6723499999999998 13.8895000000000000
  1.3306400000000000  4.0141799999999996 15.7782300000000006
 -0.0042600000000000  2.6703100000000002 17.7546399999999984
  4.0085199999999999  1.3361700000000001 11.9998799999999992
  2.6723499999999998  0.0000000000000000 13.8895000000000000
  4.0208000000000004  1.3313800000000000 15.7832500000000007
  2.7045499999999998  0.0000100000000000 17.7042999999999999
  4.0085199999999999  4.0085199999999999 11.9998799999999992
  2.6723499999999998  2.6723499999999998 13.8895000000000000
  4.0215199999999998  4.0122499999999999 15.7841000000000005
  2.6257700000000002  2.6725400000000001 17.6609900000000017
  0.2685300000000000  1.4450200000000000 18.8716800000000013
  1.5897900000000000  0.0017500000000000 18.9129800000000010
  3.8899800000000000  2.6554400000000000 18.7815900000000013
  3.9259700000000000  5.3377400000000002 18.8666200000000011
  0.2589300000000000  3.8993300000000000 18.8717900000000007
