Ag Hf Ag Hf Ag Hf  H 
 1.0000000000000000
     6.0163655742404538    0.0000000000000000    0.0000000000000000
    -3.0081827871202269    5.3199736235219541    0.0000000000000000
     0.0000000000000000    0.0000000000000000   24.9621892335032314
 Ag  Hf  Ag  Hf  Ag  Hf  H  
   2   2   2   2   2   2   1
Cartesian
  0.0000000000000000  0.0000000000000000  9.9999992923310419
  3.0081827871202269  0.0000000000000000  9.9999992923310419
  1.5040913935601135  2.6599866117609912  9.9999992923310419
 -1.5040913935601135  2.6599866117609912  9.9999992923310419
  3.0081827871202269  1.7009791796269751 12.4810945167516216
  0.0000000000000000  1.7009791796269751 12.4810945167516216
 -1.5040913935601135  4.3609657913879660 12.4810945167516216
  1.5040913935601135  4.3609657913879660 12.4810945167516216
  0.0002082999852593  3.6097983445457587 14.9520837418873729
  3.0075923871620081  3.4582765552684864 14.9451278423796214
  4.5562573775677855  0.8823887375560837 14.9008426455135456
  1.4603180966578140  0.8825728375430556 14.9005882455315497
 -0.0001816999871417  0.8689856385045795 16.2609264492646304
