 W Ti  W Ti  W Ti  H 
 1.0000000000000000
     5.7271695947059573    0.0000000000000000    0.0000000000000000
    -2.8635847973529787    4.9598736490051136    0.0000000000000000
     0.0000000000000000    0.0000000000000000   24.6762122537409354
 W   Ti  W   Ti  W   Ti  H  
   3   1   3   1   3   1   1
Cartesian
  0.0000000000000000  0.0000000000000000  9.9999992923310419
 -1.4317922986764964  2.4799370245025427  9.9999992923310419
  1.4317922986764964  2.4799370245025427  9.9999992923310419
  2.8635845973529928  0.0000000000000000  9.9999992923310419
  2.8635845973529928  1.6532912830016999 12.3381063268704541
  1.4317922986764964  4.1332283075042424 12.3381063268704541
 -1.4317922986764964  4.1332283075042424 12.3381063268704541
  0.0000000000000000  1.6532912830016999 12.3381063268704541
  0.0004685999668386  3.3623406620575720 14.5269828719704428
  1.4816932951451576  0.7970338435963851 14.5268639719788588
  4.2466618994768988  0.7972217435830879 14.5269957719695313
  2.8641049973161659  3.3057684660610107 15.1557726274729418
  2.8634615973616975  3.3069422659779448 16.8949576043962111
