Mo  W Mo  W Mo  W  H 
 1.0000000000000000
     5.3324756226372267    0.0000000000000000    0.0000000000000000
    -2.6662378113186134    5.3210136234483567    0.0000000000000000
     0.0000000000000000    0.0000000000000000   24.6147372580913313
 Mo  W   Mo  W   Mo  W   H  
   2   2   2   2   2   2   1
Cartesian
  0.0000000000000000  0.0000000000000000  9.9999992923310419
  2.6662377113186206  0.0000000000000000  9.9999992923310419
  1.3331189056593067  2.6605066117241924  9.9999992923310419
 -1.3331189056593067  2.6605066117241924  9.9999992923310419
  2.6662377113186206  1.3359906054560853 12.3073685290456734
  0.0000000000000000  1.3359906054560853 12.3073685290456734
 -1.3331189056593067  3.9964972171802775 12.3073685290456734
  1.3331189056593067  3.9964972171802775 12.3073685290456734
  0.0003237999770857  2.8145651008219508 14.7628238552807094
  2.6662637113167804  2.8281317998618776 14.6319478645423970
  4.0061376164980560  0.1536635891257040 14.5465081705886981
  1.3263799061362047  0.1537116891223002 14.5467218705735775
 -0.0001333999905597  2.6842710100424596 16.5104610316058427
