Tc Ag Tc Ag Tc Ag  H 
 1.0000000000000000
     5.2873156258330596    0.0000000000000000    0.0000000000000000
    -2.6436578129165298    5.3261826230825626    0.0000000000000000
     0.0000000000000000    0.0000000000000000   24.5900322598396244
 Tc  Ag  Tc  Ag  Tc  Ag  H  
   2   2   2   2   2   2   1
Cartesian
  0.0000000000000000  0.0000000000000000  9.9999992923310419
  2.6436580129165157  0.0000000000000000  9.9999992923310419
  1.3218290064582578  2.6630911115412954  9.9999992923310419
 -1.3218290064582578  2.6630911115412954  9.9999992923310419
  2.6436580129165157  1.3121833071408542 12.2950161299198122
  0.0000000000000000  1.3121833071408542 12.2950161299198122
 -1.3218290064582578  3.9752744186821496 12.2950161299198122
  1.3218290064582578  3.9752744186821496 12.2950161299198122
  0.0678350951995205  2.2946943376115931 14.3783425824892568
  2.5585619189385027  2.2975106374122927 14.3800901823655849
  1.2993287080505342  5.0788070405885657 14.8255289508432639
 -1.3429727049619840  4.9993079462144703 14.9002283455570197
  3.9577112199250424  2.3809956315043181 15.5707448981066410
