Sc Nb Sc Nb Sc Nb Sc  H 
 1.0000000000000000
     5.8175025883133715    0.0000000000000000    0.0000000000000000
    -2.9087517941566503    5.6145066026787678    0.0000000000000000
     0.0000000000000000    0.0000000000000000   24.9759032325327333
 Sc  Nb  Sc  Nb  Sc  Nb  Sc  H  
   1   2   2   2   2   2   1   1
Cartesian
  0.0000000000000000  0.0000000000000000  9.9999991693837860
 -1.4543758970783252  2.8072533013393839  9.9999991693837860
  1.4543753970783606  2.8072533013393839  9.9999991693837860
  2.9087512941566858  0.0000000000000000  9.9999991693837860
  2.9087511570456224  1.5069596403131376 12.4879516162663666
  1.4543752599672972  4.3142129416525217 12.4879516162663666
 -1.4543760341893881  4.3142129416525217 12.4879516162663666
 -0.0000001371110633  1.5069596403131376 12.4879516162663666
  0.0039314856429338  3.0709262183326267 15.0439906231921228
  1.4544875300230213  0.1550598432184004 14.6854167005428131
  4.3626531141135070  0.1009287512405531 14.8435004812097748
  2.9040458449377686  3.0709865237480463 15.0437668640750637
  1.4543948634438664  4.1678247487980107 16.0766292327988687
