Mo  Y Mo  Y Mo  Y Mo  H 
 1.0000000000000000
     5.9067995819940995    0.0000000000000000    0.0000000000000000
    -2.9533997909970497    5.7523515929239055    0.0000000000000000
     0.0000000000000000    0.0000000000000000   25.0688282259567181
 Mo  Y   Mo  Y   Mo  Y   Mo  H  
   1   2   2   2   2   2   1   1
Cartesian
  0.0000000000000000  0.0000000000000000  9.9999994497835303
 -1.4766998954985249  2.8761757964619528  9.9999994497835303
  1.4766998954985249  2.8761757964619528  9.9999994497835303
  2.9533997909970497  0.0000000000000000  9.9999994497835303
  2.9533997909970497  1.5163489867938018 12.5344141129783591
  1.4766998954985251  4.3925247832557544 12.5344141129783591
 -1.4766998954985247  4.3925247832557544 12.5344141129783591
  0.0000000000000000  1.5163489867938018 12.5344141129783591
  0.0091158102181021  2.7400104323132499 14.6857354916945440
  1.4666412123971466  0.1401116844261063 15.2966383433159319
  4.4402734517732085  0.1429939347058504 15.2951486783362594
  2.9396529494910713  2.7551354354976199 14.6119630191976810
 -0.0006054321901553  1.5675978433578308 16.2070812531737793
