Pd Mn Pd Mn Pd Mn  H 
 1.0000000000000000
     5.5998156037184046    0.0000000000000000    0.0000000000000000
    -2.7999078018592023    4.8495826568100648    0.0000000000000000
     0.0000000000000000    0.0000000000000000   24.5722282610995606
 Pd  Mn  Pd  Mn  Pd  Mn  H  
   3   1   3   1   3   1   1
Cartesian
  0.0000000000000000  0.0000000000000000  9.9999992923310419
 -1.3999538009296084  2.4247911284050465  9.9999992923310419
  1.3999538009296084  2.4247911284050465  9.9999992923310419
  2.7999077018592096  0.0000000000000000  9.9999992923310419
  2.7999077018592096  1.6165274856033598 12.2861143305497649
  1.3999538009296084  4.0413186140084072 12.2861143305497649
 -1.3999538009296084  4.0413186140084072 12.2861143305497649
  0.0000000000000000  1.6165274856033598 12.2861143305497649
  0.0001593999887198  3.2237328718664156 14.5772390684139683
  1.3920994014854398  0.8127976424808299 14.5774503683990151
  4.2082227021971219  0.8130006424664642 14.5767694684472016
  2.7996141018799867  3.2330727712054599 14.5001674738680855
  2.7999311018575535  3.2329907712112629 16.1160833595147288
