 H Pd  H Pd  H Pd  H Pd  H Pd  H Pd  H Pd  H Pd  H Pd  H Pd  H Pd  H Pd  H Pd  H Pd  H Pd  H Pd 
 1.0000000000000000
     5.8931382823930001    0.0000000000000000    0.0000000000000000
     2.9465691411970001    5.1036074605669999    0.0000000000000000
     0.0000000000000000    0.0000000000000000   28.4203863316440000
 H   Pd  H   Pd  H   Pd  H   Pd  H   Pd  H   Pd  H   Pd  H   Pd  H   Pd  H   Pd  H   Pd  H   Pd  H   Pd  H   Pd  H   Pd  H   Pd 
   1   1   1   1   1   1   1   1   2   1   1   1   1   1   1   1   2   1   1   1   1   1   1   1   1   1   1   1   1   1   1   1
Cartesian
  2.9465691411965844  1.7012024868556936  9.9999318146270788
  1.4732845705982938  0.8506012434278455 11.2028636292541570
  0.0000000000000006  0.0000000000000007 12.4057954438812352
  2.9465691411965849  1.7012024868556921 13.6087272585083170
  1.5333239322582841  0.8159754789255723 15.0839755584504331
  0.0064963211078181 -0.0036926009939905 15.9854108913291721
  2.8896384985160801  0.0330654082948981 19.1344048036489944
  1.4607158280643013  0.8581254748628694 18.4005698937838851
  0.0608278407354272 -0.0350016936376024 19.1468321061631812
  4.4198537117948771  4.2530062171392329  9.9999318146270788
  2.9465691411965862  3.4024049737113846 11.2028636292541570
  1.4732845705982929  2.5518037302835399 12.4057954438812352
  4.4198537117948771  4.2530062171392311 13.6087272585083170
  3.0065910778114042  3.3677665081684642 15.0839284065161987
  1.4798110118599088  2.5479348837235949 15.9854413973081293
  4.3629608871418766  2.5848606773865526 19.1343751541031182
  2.9340578298338644  3.4096461571626118 18.4007912203664503
  1.5341014652215001  2.5167136811685675 19.1467420878095922
  5.8931382823931688  1.7012024868556936  9.9999318146270788
  4.4198537117948788  0.8506012434278455 11.2028636292541570
  2.9465691411965853  0.0000000000000007 12.4057954438812352
  5.8931382823931697  1.7012024868556921 13.6087272585083170
  4.3546568171224216  0.8883261478088512 14.9213887887915586
  2.9562269270154387 -0.0054519198187682 15.9819358953911408
  5.8674279917602732  1.7162502535661550 17.4468779189761705
  4.4134014615975881  0.8546152922027501 18.4076580286514968
  7.3664228529914615  4.2530062171392329  9.9999318146270788
  5.8931382823931706  3.4024049737113846 11.2028636292541570
  4.4198537117948780  2.5518037302835399 12.4057954438812352
  7.3664228529914624  4.2530062171392311 13.6087272585083170
  5.8279472353013215  3.4400940630017796 14.9213622622717743
  4.4295162801547248  2.5461372710938601 15.9820154364639766
  7.3407226629248576  4.2680469615632219 17.4469036000517121
  5.8865878443079316  3.4061867386055114 18.4077019575826810
