Cu  H 
 1.0000000000000000
     7.7974197513278911    0.0000000000000000    0.0000000000000007
    -3.8987098756639451    6.7527635886204935   -0.0000000000000007
     0.0000000000000000    0.0000000000000000   25.4662662680701750
 Cu  H  
  54   7
Cartesian
  1.2995699585546465  0.7503070654022788  7.4276609948537997
  0.0000000000000002  0.0000000000000007 11.6720387061988280
  0.0000000000000006  1.5006141308045533  9.5498498505263125
  1.2995699585546474  0.7503070654022770 13.7942275618713452
  1.3111086144731998  2.2430260066409837 18.0653497924256534
  0.0000561379136601  1.4922052469321345 15.9570534416217100
 -0.0000000000000018  3.0012282616091097  7.4276609948537997
 -1.2995699585546481  2.2509211962068321 11.6720387061988280
 -1.2995699585546476  3.7515353270113847  9.5498498505263125
 -0.0000000000000009  3.0012282616091079 13.7942275618713452
 -0.0003267036862836  4.4566174811349297 18.0527610206741542
 -1.3090530929214601  3.7467045480804222 15.9002806986505725
 -1.2995699585546501  5.2521494578159409  7.4276609948537988
 -2.5991399171092966  4.5018423924136632 11.6720387061988280
 -2.5991399171092961  6.0024565232182159  9.5498498505263125
 -1.2995699585546492  5.2521494578159391 13.7942275618713452
 -1.3263825201412645  6.7524168539243785 18.0514974984945411
 -2.6010302794944238  5.9845465562689002 15.8989746967580743
  3.8987098756639433  0.7503070654022788  7.4276609948537997
  2.5991399171092970  0.0000000000000007 11.6720387061988280
  2.5991399171092975  1.5006141308045533  9.5498498505263125
  3.8987098756639442  0.7503070654022770 13.7942275618713452
  3.8978116217450429  2.2026573639534686 18.1691398350999478
  2.6067799138964891  1.4995047618283828 15.9001800602836223
  2.5991399171092953  3.0012282616091097  7.4276609948537997
  1.2995699585546490  2.2509211962068321 11.6720387061988280
  1.2995699585546494  3.7515353270113847  9.5498498505263125
  2.5991399171092961  3.0012282616091079 13.7942275618713452
  2.5725853380319030  4.5012729322516156 18.1681803678081728
  1.3093645648671912  3.7471233152962955 15.9005795873514604
  1.2995699585546470  5.2521494578159409  7.4276609948537997
  0.0000000000000006  4.5018423924136632 11.6720387061988280
  0.0000000000000011  6.0024565232182159  9.5498498505263125
  1.2995699585546479  5.2521494578159391 13.7942275618713452
  1.3263221575780770  6.7521758767838307 18.0515854865162773
  0.0000378447187606  5.9938113777399638 15.9465871482760040
  6.4978497927732404  0.7503070654022788  7.4276609948538006
  5.1982798342185941  0.0000000000000007 11.6720387061988280
  5.1982798342185950  1.5006141308045533  9.5498498505263125
  6.4978497927732413  0.7503070654022770 13.7942275618713452
  6.4854994185184296  2.2419297405702072 18.0650086807220482
  5.1900508298321339  1.4993651430045425 15.9000401468439421
  5.1982798342185923  3.0012282616091097  7.4276609948537997
  3.8987098756639460  2.2509211962068321 11.6720387061988280
  3.8987098756639464  3.7515353270113847  9.5498498505263125
  5.1982798342185932  3.0012282616091079 13.7942275618713452
  5.2250778124556208  4.5001018940442021 18.1665237180869532
  3.8986158526075916  3.7435375079312170 15.9488631386386484
  3.8987098756639442  5.2521494578159409  7.4276609948537997
  2.5991399171092975  4.5018423924136632 11.6720387061988280
  2.5991399171092979  6.0024565232182159  9.5498498505263125
  3.8987098756639451  5.2521494578159391 13.7942275618713452
  3.8993759188747896  6.7238559174070796 18.0649374726249903
  2.6012810712374854  5.9848434731581834 15.8992762088207620
  2.5807890557500031  6.0361017483897443 18.9754129911969969
  1.2466356811042001  3.7283965087843636 18.9777400478853302
  3.8986343651935829  3.7339681363762320 18.9515872431045622
  2.5642095379208532  1.4408072707259798 18.9773901471255009
  5.2302848154183792  1.4403984529318072 18.9769948114850706
  5.2188313489824463  6.0332296350135426 18.9747400332700380
  6.5506008867862029  3.7252462906190895 18.9767816680243335
