Pd  H 
 1.0000000000000000
     8.4452583474628558    0.0000000000000000    0.0000000000000000
    -4.2226291737314270    7.3138082704254206   -0.0000000000000007
    -0.0000000000000018    0.0000000000000000   27.5820982630190414
 Pd  H  
  54   1
Cartesian
 -1.1726557127916792  2.0314255529220886 10.3445474149422161
  0.2345615227483509  1.2185524953671614  8.0292188393976591
  1.6421335675622180  0.4063226816903033 12.6417950372170580
  1.6391805033576758  2.0316367795038981 17.2436579656507334
  0.2345905096517453  1.2189680450709039 14.9403032258019852
  1.6399991376707272  0.4050869731419668 19.5506607399704500
 -2.5805172150798863  4.4699145722049574 10.3445266982668773
 -1.1729245129989572  3.6569141460208576  8.0308526302054943
  0.2345905096517422  2.8442587718321102 12.6417950372170580
  0.2346106499859231  4.4695522018278382 17.2695246383071144
 -1.1729525482587304  3.6569041352127112 14.9403032258019852
  0.2345642057884299  2.8278482665315035 19.6151395331654719
 -3.9880415718540498  6.9074938015922438 10.3443639440940860
 -2.5808786973909843  6.0950306848795570  8.0292159742000795
 -1.1729525482587335  5.2821948619739176 12.6417950372170580
 -1.1744014225709152  6.9049181978987884 17.2436311789847601
 -2.5804956061692064  6.0948402253545177 14.9403032258019852
 -1.1871818398093796  5.2903948035154373 19.6151620466716459
  1.6418364251705666  2.0314213598734194 10.3444826251194364
  3.0496056657067316  1.2189103234061063  8.0300051315069325
  4.4572196833831699  0.4063226816903033 12.6417950372170580
  4.4572249832183690  2.0316173014080112 17.2319030607010859
  3.0496766254726970  1.2189680450709039 14.9403032258019852
  4.4572295505455530  0.4143365185996609 19.5456667830128374
  0.2346010543083949  4.4695489425851660 10.3445579386348996
  1.6420646570243360  3.6569338776248488  8.0308019931892893
  3.0496766254726939  2.8442587718321102 12.6417950372170580
  3.0482160392902600  4.4721079496580067 17.2436518143386799
  1.6421335675622215  3.6569041352127112 14.9403032258019852
  3.0566207126231921  2.8402517225401729 19.5456696379943828
 -1.1732508648272355  6.9073194584863140 10.3444904479454696
  0.2345861818215821  6.0947589973704641  8.0307799089328515
  1.6421335675622184  5.2821948619739176 12.6417950372170580
  1.6436182833226753  6.9049255222454677 17.2436476427750947
  0.2345905096517457  6.0948402253545177 14.9403032258019852
  1.6563196984019608  5.2903865561688610 19.6151469704123471
  4.4572165874630381  2.0316195293876489 10.3424889480919013
  5.8648029847902361  1.2189249592345401  8.0299341348698388
  7.2723057992041218  0.4063226816903033 12.6417950372170580
  7.2752663484590236  2.0316398113876351 17.2436644211592203
  5.8647627412936494  1.2189680450709039 14.9403032258019852
  7.2744770557543434  0.4050540549098652 19.5507509492282594
  3.0496779319976346  4.4698886293836484 10.3444993810881130
  4.4571998994029078  3.6569743235327454  8.0298770345217942
  5.8647627412936458  2.8442587718321102 12.6417950372170580
  5.8662695719845361  4.4720943108975026 17.2436671463887379
  4.4572196833831734  3.6569041352127112 14.9403032258019852
  5.8577794584050560  2.8402222512599806 19.5457438797296419
  1.6424263225441285  6.9073180076060403 10.3444987355666935
  3.0500359339381706  6.0950532232554249  8.0292280724546465
  4.4572196833831708  5.2821948619739176 12.6417950372170580
  4.4572227172678938  6.9074714183343753 17.2332714385486554
  3.0496766254726975  6.0948402253545177 14.9403032258019852
  4.4572287192283646  5.2846979619671428 19.5508008886957754
  0.2345233380565998  4.4695264036715132 20.3949694368472088
