Pd  H 
 1.0000000000000000
     8.4452583474628558    0.0000000000000000    0.0000000000000000
    -4.2226291737314270    7.3138082704254206   -0.0000000000000007
    -0.0000000000000018    0.0000000000000000   27.5820982630190414
 Pd  H  
  54  10
Cartesian
 -1.1729710521138972  2.0316087011591430 10.3411738612219555
  0.2343652987962149  1.2187931858571344  8.0280459716600632
  1.6421335675622180  0.4063226816903033 12.6417950372170580
  1.6516563168676439  2.0378412392478449 17.2729304127624630
  0.2345905096517453  1.2189680450709039 14.9403032258019852
  1.6432796175127315  0.3940323768768909 19.6161793199487988
 -2.5805813182098882  4.4694647717628362 10.3416315926388371
 -1.1729169682666760  3.6571637893286804  8.0283082565826565
  0.2345905096517422  2.8442587718321102 12.6417950372170580
  0.2340272299713708  4.4702557059791372 17.2409552602088141
 -1.1729525482587304  3.6569041352127112 14.9403032258019852
  0.2234558929549608  2.8528342990098614 19.6165327308428381
 -3.9880863463573641  6.9074945564557613 10.3411896067499285
 -2.5802861989532189  6.0947480864195311  8.0285335819924200
 -1.1729525482587335  5.2821948619739176 12.6417950372170580
 -1.1731712054680292  6.9076546888562342 17.2411231627062591
 -2.5804956061692064  6.0948402253545177 14.9403032258019852
 -1.1739863858308814  5.2832724165895488 19.6296871917290368
  1.6422534024026083  2.0317238130782922 10.3410945232217113
  3.0496806787946897  1.2188667731018663  8.0281404905852227
  4.4572196833831699  0.4063226816903033 12.6417950372170580
  4.4471828210707018  2.0377348207275170 17.2731479344050740
  3.0496766254726970  1.2189680450709039 14.9403032258019852
  4.4550562326158909  0.3935717876921920 19.6165121662079471
  0.2346847703390447  4.4694811873693974 10.3416708342983839
  1.6419942243973058  3.6569424622267510  8.0279963547039070
  3.0496766254726939  2.8442587718321102 12.6417950372170580
  3.0493247637556444  4.4585940752035809 17.2730003926128077
  1.6421335675622215  3.6569041352127112 14.9403032258019852
  3.0491203988548348  2.8452470487421948 19.8417096768587378
 -1.1729633057203610  6.9076342011364771 10.3417222382355813
  0.2343882091404589  6.0947393272093677  8.0285290091817583
  1.6421335675622184  5.2821948619739176 12.6417950372170580
  1.6437009849518485  6.9090460989329676 17.2443475531152508
  0.2345905096517457  6.0948402253545177 14.9403032258019852
  1.6297011969301431  5.2883848224316701 19.6166885796358414
  4.4570595364293526  2.0316978759184212 10.3411288019061320
  5.8649765451533744  1.2188045198925392  8.0279899487662689
  7.2723057992041218  0.4063226816903033 12.6417950372170580
  7.2720214020828093  2.0299387850081958 17.2442867572293892
  5.8647627412936494  1.2189680450709039 14.9403032258019852
  7.2716676813317278  0.4073008187629422 19.6434543588103985
  3.0496572975937282  4.4693704516496364 10.3411125417727021
  4.4573094506739404  3.6569679339120427  8.0280314513446633
  5.8647627412936458  2.8442587718321102 12.6417950372170580
  5.8648210850587192  4.4702075094000966 17.2409741972815027
  4.4572196833831734  3.6569041352127112 14.9403032258019852
  5.8751811046549252  2.8534335541417715 19.6164316206636826
  1.6421399394460712  6.9075010131874954 10.3411999092752538
  3.0496312276717030  6.0950871819229464  8.0280251113985486
  4.4572196833831708  5.2821948619739176 12.6417950372170580
  4.4551337039832832  6.9090534863178910 17.2444859354096351
  3.0496766254726975  6.0948402253545177 14.9403032258019852
  4.4688717199270762  5.2881295902220353 19.6161272317359341
  0.2244753433044901  4.4759655688950675 20.4565040333727595
  3.0495051145998677  4.5868832726033091 20.4546225264156263
  5.8726203967713122  4.4757637732642612 20.4588693447684093
  1.5414436033227874  1.9743837997341294 20.4541026737537202
  4.5567423801826488  1.9748911376412746 20.4522940791655223
  7.2710176889759381  2.0280834315852103 20.4485836662117784
  3.0487778521226159 -0.4153108524236495 20.4585129188908041
  5.8679812180733606 -0.4022725216117926 20.4486170293947040
  8.6755251890022294 -0.4031438356931763 20.4473466371856247
  3.0497852443617224  2.8450516032462527 21.3871494604725605
