Cu  H 
 1.0000000000000000
     7.7974197513278911    0.0000000000000000    0.0000000000000007
    -3.8987098756639451    6.7527635886204935   -0.0000000000000007
     0.0000000000000000    0.0000000000000000   25.4662662680701750
 Cu  H  
  54   3
Cartesian
  1.2995699585546465  0.7503070654022788  7.4276609948537997
  0.0000000000000002  0.0000000000000007 11.6720387061988280
  0.0000000000000006  1.5006141308045533  9.5498498505263125
  1.2995699585546474  0.7503070654022770 13.7942275618713452
  1.2786416837788761  2.2228624615984440 18.0388265839740178
  0.0011614468290043  1.4921985237877959 15.8568255266402289
 -0.0000000000000018  3.0012282616091097  7.4276609948537997
 -1.2995699585546481  2.2509211962068321 11.6720387061988280
 -1.2995699585546476  3.7515353270113847  9.5498498505263125
 -0.0000000000000009  3.0012282616091079 13.7942275618713452
  0.0016381827978105  4.5196100424392194 18.0415299246137515
 -1.2967786369159484  3.7444006914435413 15.9412598663097107
 -1.2995699585546501  5.2521494578159409  7.4276609948537988
 -2.5991399171092966  4.5018423924136632 11.6720387061988280
 -2.5991399171092961  6.0024565232182159  9.5498498505263125
 -1.2995699585546492  5.2521494578159391 13.7942275618713452
 -1.2717807212919383  6.7255508753325692 18.0355120868231040
 -2.5971747004363146  5.9961452551426619 15.9387777906402661
  3.8987098756639433  0.7503070654022788  7.4276609948537997
  2.5991399171092970  0.0000000000000007 11.6720387061988280
  2.5991399171092975  1.5006141308045533  9.5498498505263125
  3.8987098756639442  0.7503070654022770 13.7942275618713452
  3.9027981043011502  2.2694382547088336 18.0408334971339706
  2.6013713968311905  1.4963037832315114 15.9389623939533465
  2.5991399171092953  3.0012282616091097  7.4276609948537997
  1.2995699585546490  2.2509211962068321 11.6720387061988280
  1.2995699585546494  3.7515353270113847  9.5498498505263125
  2.5991399171092961  3.0012282616091079 13.7942275618713452
  2.6251461089628751  4.4746903832683698 18.0366443552382272
  1.2978856755480312  3.7456283825405645 15.9399955355012448
  1.2995699585546470  5.2521494578159409  7.4276609948537997
  0.0000000000000006  4.5018423924136632 11.6720387061988280
  0.0000000000000011  6.0024565232182159  9.5498498505263125
  1.2995699585546479  5.2521494578159391 13.7942275618713452
  1.2758417142404139  6.7261018764808256 18.0370401194950354
  0.0006687291517936  5.9977122091498645 15.8505468708727921
  6.4978497927732404  0.7503070654022788  7.4276609948538006
  5.1982798342185941  0.0000000000000007 11.6720387061988280
  5.1982798342185950  1.5006141308045533  9.5498498505263125
  6.4978497927732413  0.7503070654022770 13.7942275618713452
  6.5289258098084781  2.2210948612011201 18.0419113177613220
  5.1992885318865323  1.4967082398602640 15.9407775626189405
  5.1982798342185923  3.0012282616091097  7.4276609948537997
  3.8987098756639460  2.2509211962068321 11.6720387061988280
  3.8987098756639464  3.7515353270113847  9.5498498505263125
  5.1982798342185932  3.0012282616091079 13.7942275618713452
  5.1766113660163642  4.4724220085976922 18.0371396877016856
  3.8988434508717242  3.7486154567281882 15.8541995050096318
  3.8987098756639442  5.2521494578159409  7.4276609948537997
  2.5991399171092975  4.5018423924136632 11.6720387061988280
  2.5991399171092979  6.0024565232182159  9.5498498505263125
  3.8987098756639451  5.2521494578159391 13.7942275618713452
  3.9021762156785358  6.7661317036353523 18.0391266561800876
  2.5983221536504586  5.9970678279805130 15.9390948713530811
  0.0005430998264491  5.9963994773758689 19.0019061517047874
  3.8993007477783159  3.7465592518810884 19.0020356987210199
  0.0093867444340681  1.4821705705712571 19.0015547317222158
