Ti La Ti La Ti La Ti  H 
 1.0000000000000000
     6.4561145431207825    0.0000000000000000    0.0000000000000000
     2.2511248406948718    6.0509385717938304    0.0000000000000000
     0.0000000000000000    0.0000000000000000   25.2985562096995835
 Ti  La  Ti  La  Ti  La  Ti  H  
   1   2   2   2   2   2   1   1
Cartesian
  0.0000000000000000  0.0000000000000000  9.9999993843641359
  1.1255624203474359  3.0254692858969152  9.9999993843641359
  3.2280572715603912  0.0000000000000000  9.9999993843641359
  4.3536196919078272  3.0254692858969152  9.9999993843641359
  6.4561147038298516  4.4865601786418541 12.6492781048497918
  5.3305522834824153  1.4610908927449389 12.6492781048497918
  3.2280574322694600  4.4865601786418541 12.6492781048497918
  2.1024950119220245  1.4610908927449389 12.6492781048497918
  4.6480947778442783  2.7046009926979249 15.0783707148715447
  5.4032629386598527  5.9985075279217970 15.4806371625983807
  7.7356686522601041  3.1323909255517255 15.4882295881981449
  8.5092466406903924  6.4389216609876412 15.0787458671615795
  5.2204420382768069  1.3843621477134642 16.3749918229179059
