Rh  H 
 1.0000000000000000
     8.1993297628253856    0.0000000000000000    0.0000000000000007
     4.0996648814126928    7.1008278686126216    0.0000000000000000
     1.3665549604708982    0.7889808742902904   22.3157490574862365
 Rh  H  
  36  11
Cartesian
  2.7385045922435918  1.5824743690217766  7.8472959334580601
  4.1071103588558415  2.3726595101715198 10.0331355433053613
  1.3838233551113370  0.8004119286576989 12.2459384372507358
  2.7397154989889820  1.5833970978800145 14.7367339673777362
  4.1066450200444669  3.9480967504472426  7.8276359893922614
  5.4722739456836260  4.7384019452282535 10.0288878395551020
  2.7390921939912007  3.1477412601468031 12.2458989876405262
  4.1044645677127694  3.9581527915239585 14.4795776137943246
  5.4735932508010237  6.3157389673481346  7.8274463855281482
  6.8384575621440451  7.1035311561961869 10.0331511601441523
  4.1070184886786860  5.5270015928913816 12.2228074409883014
  5.4651248864322666  6.3149254559221255 14.4797771692651729
  5.4712590676391955  1.5844829552820363  7.8276366937582775
  6.8384886839588770  2.3720647694709553 10.0288809696334820
  4.0942998672829036  0.8004544339650441 12.2458937416446894
  5.4787080754661952  1.5778937672145503 14.4795719439427675
  6.8383007754455081  3.9494692185179150  7.8327816646534458
  8.2046621726505045  4.7383804564588710 10.0289487733510310
  5.4813600028381009  3.1661442052729685 12.2495355815739924
  6.8394876988842048  3.9503912716461618 14.7699653678740059
  8.2028311465019534  6.3157043543098643  7.8276031763949572
  9.5667899771278027  7.1083311405020604 10.0201427538483401
  6.8386890135327434  5.5172115364329253 12.2496514132740817
  8.2135894350170560  6.3149545187981433 14.4796398250612430
  8.2051882934836158  1.5844767897183645  7.8274489087620784
  9.5698524822979607  2.3726362071340401 10.0331543118807005
  6.8387725791892580  0.7955256146045653 12.2228022245666637
  8.2000553718749778  1.5778652950419789 14.4797773497789120
  9.5697795287556282  3.9480969684063645  7.8276074215627753
 10.9381602042808179  4.7330497549748989 10.0201494738209007
  8.1961464258621124  3.1660897915919071 12.2496349665845496
  9.5743076580800874  3.9581157117299033 14.4796151513845519
 10.9379028921057220  6.3163776129129205  7.8369107168868455
 12.3095289614502992  7.1083378539171349 10.0200610452879850
  9.5703955134503804  5.5269667434286358 12.2227537860446542
 10.9390003229847839  6.3172422224425029 14.4957323735726611
  4.1791772698447121  2.4144094061787893 15.4778320475024493
  6.8390722785228260  2.2955992019658624 15.4908078111576053
  9.4995847021337472  2.4142265761684620 15.4780025204402367
  8.2729523129157059  4.7779682464766182 15.4906657264635559
  5.4061664253161537  4.7774206373323169 15.4907985899884970
 10.9391298230169465  4.7445561357918846 15.4563744392419284
  6.8391818585538413  7.0222182592152329 15.4780322574883193
  9.5770516578131915  7.1036734820887295 15.4563892485884313
 12.3007299852299710  7.1034062328761651 15.4564287944551531
  6.8409941579297673  3.9513393515322917 16.3245771077136617
  2.7402544169789462  1.5839016266566142 16.2897783960223741
