Ir  H 
 1.0000000000000000
     8.2537759820258803   -0.0000000000000007   -0.0000000000000010
    -4.1268879910129401   -7.1479796775802651    0.0000000000000005
    -0.0000000000000051    0.0000000000000018  -26.9567194762700737
 Ir  H  
  54   5
Cartesian
 -0.4626708898793019 -1.5933272153224387 -10.1176029688663061
  0.8831324321861668 -0.8158645962405963 -7.9005140758141179
  2.2927155505627423  0.0000000000000002 -12.3551630932904537
 -0.4593593997388621 -1.5889261564356878 -16.8401086618262461
  0.9170862202250976 -0.7942199641755820 -14.6015563829796253
  0.9182730384244887 -2.3819746855686108 -19.0479225133954841
 -1.8415865314663695 -3.9750213720677525 -10.1022279419357126
 -0.4116384095679004 -3.1490115986743614 -7.8700253876167645
  0.9170862202250956 -2.3826598925267550 -12.3551630932904537
 -1.8343278185299010 -3.9711637521540384 -16.8405280816048659
 -0.4585431101125492 -3.1768798567023371 -14.6015563829796253
 -0.4579822097440513 -4.7651128692094487 -19.0466684130186614
 -3.2040443543014492 -6.3497373989948702 -10.1135102888761796
 -1.8429935877619827 -5.5805762322076076 -7.8298459626271324
 -0.4585431101125512 -4.7653197850535101 -12.3551630932904537
 -3.2098037185326893 -6.3531986370027766 -16.8396038037685933
 -1.8341724404501960 -5.5595397492290921 -14.6015563829796253
 -1.8352582104240993 -7.1496390724633514 -19.0471648159131490
  2.2946091245007425 -1.5867901089438412 -10.1160837988742749
  3.6804018520347705 -0.7864652219691347 -7.8689486982776540
  5.0439742112380355 -0.0000000000000001 -12.3551630932904537
  2.2926599920511106 -1.5884374972967832 -16.8385801842775109
  3.6683448809003911 -0.7942199641755823 -14.6015563829796253
  3.6663320048206169 -2.3827579336857210 -19.0471787762569065
  0.9103964788508425 -3.9714258156773581 -10.1175372376303105
  2.2565201594851558 -3.1943351976663812 -7.9009447525387788
  3.6683448809003893 -2.3826598925267555 -12.3551630932904537
  0.9162343526273242 -3.9715187628449917 -16.8401132791558901
  2.2927155505627441 -3.1768798567023375 -14.6015563829796253
  2.2929825308639331 -4.7644581915421673 -19.0480246260176607
 -0.4692936530525735 -6.3554294891594525 -10.1104753675716399
  0.9585434545040733 -5.5720273351575651 -7.9006475822394231
  2.2927155505627423 -4.7653197850535101 -12.3551630932904537
 -0.4584798267542686 -6.3535254133436672 -16.8408466042402125
  0.9170862202250976 -5.5595397492290921 -14.6015563829796253
  0.9169537335381762 -7.1480474841402506 -19.0476586849148717
  5.0367021587452827 -1.5961921278542703 -10.1103622957289527
  6.4288876080436514 -0.7507543921719596 -7.9006689428129073
  7.7952328719133295 -0.0000000000000003 -12.3551630932904537
  5.0441785027342654 -1.5884633276273459 -16.8408501118006306
  6.4196035415756842 -0.7942199641755825 -14.6015563829796253
  6.4200556923018404 -2.3822627916108718 -19.0466619052993344
  3.6744328759277392 -3.9673851819242341 -10.1135338107324824
  5.0210148102709118 -3.1729320570455513 -7.8297898626801095
  6.4196035415756825 -2.3826598925267555 -12.3551630932904537
  3.6688098624070791 -3.9713292881024826 -16.8395989913574979
  5.0439742112380372 -3.1768798567023375 -14.6015563829796253
  5.0427943051557378 -4.7659956981171163 -19.0465177502872365
  2.2908091111389113 -6.3543688175438175 -10.1253028727834788
  3.6239572551321073 -5.5842328585714958 -7.9011175073142894
  5.0439742112380355 -4.7653197850535109 -12.3551630932904537
  2.2918995539525553 -6.3541981171131887 -16.8407494898982044
  3.6683448809003911 -5.5595397492290930 -14.6015563829796253
  3.6692242085283722 -7.1481531210082698 -19.0480120315099839
 -0.4306752662734798 -4.7551773431415327 -6.8624250948965857
  5.0492184914603229 -4.7623161064326824 -6.8334721196831136
  3.6844251863889821 -2.3781026823422562 -6.8294476311214520
  6.4423803443908643 -2.3621694965504516 -6.8622307251095931
 -1.8266618472971312 -7.1394610442571116 -6.8299297742597700
