Ir  H 
 1.0000000000000000
     8.2537759820258803   -0.0000000000000007   -0.0000000000000010
    -4.1268879910129401   -7.1479796775802651    0.0000000000000005
    -0.0000000000000051    0.0000000000000018  -26.9567194762700737
 Ir  H  
  54   1
Cartesian
 -0.4591820596722556 -1.5886286747176686 -10.1160319721261409
  0.9131914567492514 -0.7978613912535005 -7.9116348415850712
  2.2927155505627423  0.0000000000000002 -12.3551630932904537
 -0.4579809563340571 -1.5880685431194022 -16.8405926433685558
  0.9170862202250976 -0.7942199641755820 -14.6015563829796253
  0.9163012577481658 -2.3828074596457962 -19.0483517684931982
 -1.8341787080851302 -3.9721840642094497 -10.1168940256807502
 -0.4706268928712697 -3.1707153188963217 -7.9090437665824309
  0.9170862202250956 -2.3826598925267550 -12.3551630932904537
 -1.8341710314868318 -3.9716947115808350 -16.8407021367840954
 -0.4585431101125492 -3.1768798567023371 -14.6015563829796253
 -0.4587652135566150 -4.7644182922505554 -19.0483611217090569
 -3.2140325532374123 -6.3511124941873289 -10.1153477940359657
 -1.8341787625324644 -5.5549187103223110 -7.9111243579037733
 -0.4585431101125512 -4.7653197850535101 -12.3551630932904537
 -3.2097605075974340 -6.3538561698445362 -16.8421913891447232
 -1.8341724404501960 -5.5595397492290921 -14.6015563829796253
 -1.8341608040872115 -7.1480900186404943 -19.0488351637251156
  2.2927067811228290 -1.5942995833333355 -10.1150667691759288
  3.6722102518698327 -0.7978595492995479 -7.9116341706505917
  5.0439742112380355 -0.0000000000000001 -12.3551630932904537
  2.2927146204625255 -1.5883148412304480 -16.8418996795777822
  3.6683448809003911 -0.7942199641755823 -14.6015563829796253
  3.6691523322544422 -2.3828091144472983 -19.0483499433913401
  0.9208956575517622 -3.9736268859513673 -10.1103988755515903
  2.2927104439389572 -3.1350175940670675 -7.8846140851189483
  3.6683448809003893 -2.3826598925267555 -12.3551630932904537
  0.9171894010888535 -3.9711327908570491 -16.8409129902028241
  2.2927155505627441 -3.1768798567023375 -14.6015563829796253
  2.2927260869410930 -4.7652072279633018 -19.0475595199827765
 -0.4543313262294694 -6.3511168731015966 -10.1153467830884516
  0.8804783957933165 -5.5804058149079765 -7.8831349529417949
  2.2927155505627423 -4.7653197850535101 -12.3551630932904537
 -0.4585880478088402 -6.3538510400360808 -16.8421933402649593
  0.9170862202250976 -5.5595397492290921 -14.6015563829796253
  0.9176453210051880 -7.1486662523861488 -19.0483256476123479
  5.0445960043320461 -1.5886288462192508 -10.1160328026714001
  6.4195885788234444 -0.8099072887663844 -7.9087528544548347
  7.7952328719133295 -0.0000000000000003 -12.3551630932904537
  5.0434124834225855 -1.5880684143306909 -16.8405904267537458
  6.4196035415756842 -0.7942199641755825 -14.6015563829796253
  6.4196163802624859 -2.3826428718223811 -19.0488183705765408
  3.6645236049182697 -3.9736286062913724 -10.1103983087521918
  5.0560440591739129 -3.1707027992382919 -7.9090460636004263
  6.4196035415756825 -2.3826598925267555 -12.3551630932904537
  3.6682428229152366 -3.9711355966603779 -16.8409144443976047
  5.0439742112380372 -3.1768798567023375 -14.6015563829796253
  5.0442228289210309 -4.7644189497159974 -19.0483596626493288
  2.2927088472831554 -6.3505187518091128 -10.1097642529482030
  3.7049488184859776 -5.5804114909978360 -7.8831290419696751
  5.0439742112380355 -4.7653197850535109 -12.3551630932904537
  2.2927171110404601 -6.3536820031427572 -16.8409846894291313
  3.6683448809003911 -5.5595397492290930 -14.6015563829796253
  3.6678082983749021 -7.1486652267086521 -19.0483260035087838
  2.2927765898576351 -4.7632891650777323 -6.8823835231153607
