Pt  H 
 1.0000000000000000
     8.4598961693043684   -0.0000000000000010   -0.0000000000000010
     4.2299480846521842   -7.3264849959962417    0.0000000000000001
     1.4099826948840579   -0.8140538884440238  -23.0249209908019452
 Pt  H  
  36   3
Cartesian
  2.8548090523179424 -1.6579724975480237 -7.8958628774631849
  4.2222034594415794 -2.4430078645500442 -10.3671457342757893
  1.4090795887482881 -0.8157716194842044 -12.6488173717934238
  2.8167499659053732 -1.6262691118660459 -15.0180709058603075
  4.2410124377382141 -4.0695732040080186 -8.0276950935994105
  5.6384051745532000 -4.8956402810950310 -10.3682361292369762
  2.8195627703646893 -3.2577911150696215 -12.6741882600428504
  4.2273347891048125 -4.0716994866615170 -15.0313664480041069
  5.6366175539684580 -6.4772680482569909 -7.8967032774258783
  7.0463060904432604 -7.3329391745223367 -10.3277364154088662
  4.2292351053298187 -5.7003072283591480 -12.6743647750319841
  5.6396368371769041 -6.5160361836398533 -15.0187841214731730
  5.6365744149185062 -1.6518190066189311 -8.0284469147486863
  7.0539078948425642 -2.4436476898806267 -10.3685389839061024
  4.2289930222548717 -0.8163723977252192 -12.6739738492939988
  5.6398200110140202 -1.6251983295747727 -15.0310067728780528
  7.0338398387729617 -4.0716493411691550 -8.0278279854143815
  8.4613549845896259 -4.8905080670042107 -10.3544548696490608
  5.6384489364711987 -3.2577276609526331 -12.7017565993955603
  7.0523043074652998 -4.0716324697641966 -15.0302542434698783
  8.4820983506621008 -6.5068551574197597 -7.9649356191225111
  9.8679343357800633 -7.3285128663124652 -10.3546761932967311
  7.0488393692941385 -5.7004701778487528 -12.6744093406861857
  8.4597999405828030 -6.5124083388511202 -15.0188612418662633
  8.4195881323813779 -1.6594429441717058 -7.8977992431987234
  9.8693074188756960 -2.4441737532696717 -10.3282273998679841
  7.0493414111152211 -0.8158584716995502 -12.6743336975322674
  8.4629187652236784 -1.6260532371578906 -15.0186826309766506
  9.8687721542646170 -4.1074135577365514 -7.9647955162488167
 11.2762850598433193 -4.8896303451784098 -10.3546679473434349
  8.4593047516257833 -3.2577442269913246 -12.6744991999767986
  9.8697665852344212 -4.0703039720239609 -15.0191340818473460
 11.2546051719145730 -6.5072852001922703 -7.9659496010650725
 12.6911060527345594 -7.3328281523179824 -10.3248195161005256
  9.8693421828655268 -5.7003526112563661 -12.6682517578875657
 11.2799558810775995 -6.5125131076304728 -15.0207516176395739
  9.8639813499764593 -2.4856344956848591 -7.0417803684342122
  7.0760583172884726 -7.3118234942461910 -7.0429338367622050
 12.6530321885103820 -7.3233231989787679 -7.0470376081399122
