Ir Ni Ir Ni Ir Ni  H 
 1.0000000000000000
     5.4025806176761133    0.0000000000000000    0.0000000000000000
    -2.7012898088380921    4.6787716688978298    0.0000000000000000
     0.0000000000000000    0.0000000000000000   24.4111872724959333
 Ir  Ni  Ir  Ni  Ir  Ni  H  
   3   1   3   1   3   1   1
Cartesian
  0.0000000000000000  0.0000000000000000  9.9999992923310419
 -1.3506450044190388  2.3393858344489149  9.9999992923310419
  1.3506450044190388  2.3393858344489149  9.9999992923310419
  2.7012901088380712  0.0000000000000000  9.9999992923310419
  2.7012901088380712  1.5595905896326074 12.2055934362479803
  1.3506450044190388  3.8989764240815221 12.2055934362479803
 -1.3506450044190388  3.8989764240815221 12.2055934362479803
  0.0000000000000000  1.5595905896326074 12.2055934362479803
  0.0001028999927181  3.1109171798500324 14.3490106845649841
  1.3434697049268127  0.7840890445124483 14.3490056845653378
  4.0590218127556064  0.7839137445248539 14.3489429845697742
  2.7005034088937427  3.1188041792918941 14.3950678813056587
  2.7011706088465273  3.1192615792595251 15.8658978772195791
