Al  Y Al  Y Al  Y  H 
 1.0000000000000000
     6.2241485595362960    0.0000000000000000    0.0000000000000000
     2.0624218540487975    5.8725155844202721    0.0000000000000000
     0.0000000000000000    0.0000000000000000   25.0781792252949778
 Al  Y   Al  Y   Al  Y   H  
   2   2   2   2   2   2   1
Cartesian
  0.0000000000000000  0.0000000000000000  9.9999992923310419
  4.1432856067925190  2.9362579922101220  9.9999992923310419
  3.1120744797681339  0.0000000000000000  9.9999992923310419
  1.0312111270243844  2.9362579922101220  9.9999992923310419
  6.2241488595362746  4.4109212878527710 12.5390894126475025
  2.0808632527437569  1.4746633956426416 12.5390894126475025
  3.1120744797681339  4.4109212878527710 12.5390894126475025
  5.1929377325118908  1.4746633956426416 12.5390894126475025
  4.1636367053523342  2.9488816913167817 15.0073697379749547
  0.0185797986851652  0.0151788989258364 15.0073682379750615
  1.0510460256207301  2.9504629912048785 15.4302763080471674
  3.1292332785538588  0.0123255991277556 15.1549197275332990
  1.0491632257539700  2.9489871913093162 17.4222609670805859
