Fe Au Fe Au Fe Au Fe  H 
 1.0000000000000000
     5.5855036047312208    0.0000000000000000    0.0000000000000000
     2.7280368069452900    4.8739786550836364    0.0000000000000000
     0.0000000000000000    0.0000000000000000   24.5770292607598115
 Fe  Au  Fe  Au  Fe  Au  Fe  H  
   1   2   2   2   2   2   1   1
Cartesian
  0.0000000000000000  0.0000000000000000  9.9999991381159994
  1.3640184034726450  2.4369893275418182  9.9999991381159994
  2.7927518023656104  0.0000000000000000  9.9999991381159994
  4.1567702058382556  2.4369893275418182  9.9999991381159994
  5.5855033286802591  3.2746125782524773 12.2885146303799058
  4.2214849252076139  0.8376232507106596 12.2885146303799058
  2.7927515263146487  3.2746125782524773 12.2885146303799058
  1.4287331228420039  0.8376232507106596 12.2885146303799058
  2.8357613117553644  1.5213779489113937 14.4807501512094294
  4.1297924465901845  4.0605698372252119 14.6520885174683464
  5.7575284133462716  1.7363529560300408 14.6287883877628282
  6.8703956659517278  4.1696658902121158 14.4796252360031339
  3.9232356261905776  0.6622131893607970 15.5226195756315590
