Ga Ta Ga Ta Ga Ta Ga  H 
 1.0000000000000000
     5.6961085969040477    0.0000000000000000    0.0000000000000000
    -2.8480537984520593    5.0033426459289476    0.0000000000000000
     0.0000000000000000    0.0000000000000000   24.6832142532454277
 Ga  Ta  Ga  Ta  Ga  Ta  Ga  H  
   1   2   2   2   2   2   1   1
Cartesian
  0.0000000000000000  0.0000000000000000  9.9999993018893463
 -1.4240268992260297  2.5016713229644738  9.9999993018893463
  1.4240273992259942  2.5016713229644738  9.9999993018893463
  2.8480542984520238  0.0000000000000000  9.9999993018893463
  2.8480544576155165  1.6211986795529252 12.3416071266227139
  1.4240275583894868  4.1228700025173985 12.3416071266227139
 -1.4240267400625370  4.1228700025173985 12.3416071266227139
  0.0000001591634926  1.6211986795529252 12.3416071266227139
  0.0001304961174311  3.2886350597069169 14.9338383121817628
  1.3920689212636268  0.7132557687349929 14.6088663948717379
  4.3040186002075025  0.7134135141219335 14.6086932174405373
  2.8477835902328019  3.1283684183599889 14.7959038951735629
  0.0000714636869018  0.5445786284804812 15.9625113402354089
