Ti  V Ti  V Ti  V  H 
 1.0000000000000000
     5.2357086294851269    0.0000000000000000    0.0000000000000000
    -2.6178548147425280    5.1793206334755304    0.0000000000000000
     0.0000000000000000    0.0000000000000000   24.5176802649597541
 Ti  V   Ti  V   Ti  V   H  
   2   2   2   2   2   2   1
Cartesian
  0.0000000000000000  0.0000000000000000  9.9999992923310419
  2.6178544147425562  0.0000000000000000  9.9999992923310419
  1.3089272073712781  2.5896601167377793  9.9999992923310419
 -1.3089272073712781  2.5896601167377793  9.9999992923310419
  2.6178544147425562  1.3231779063628004 12.2588402324798693
  0.0000000000000000  1.3231779063628004 12.2588402324798693
 -1.3089272073712781  3.9128380231005799 12.2588402324798693
  1.3089272073712781  3.9128380231005799 12.2588402324798693
  0.0061641995637787  2.6971759091292200 14.5793003682680968
  2.6241134142996261  2.6621003116114115 14.5410896709721502
  1.3219025064530565  5.1745597338124449 14.3298369859218475
 -1.3085075074009791  5.1753440337569421 14.3301244859015018
  0.0062237995595610  4.4725222834934586 15.5039102028363249
