Ti  W Ti  W Ti  W Ti  H 
 1.0000000000000000
     5.3643546203812482    0.0000000000000000    0.0000000000000000
    -2.6821768101906596    5.3177916236763672    0.0000000000000000
     0.0000000000000000    0.0000000000000000   24.6320272568677687
 Ti  W   Ti  W   Ti  W   Ti  H  
   1   2   2   2   2   2   1   1
Cartesian
  0.0000000000000000  0.0000000000000000  9.9999993353002488
 -1.3410884050953298  2.6588958118381836  9.9999993353002488
  1.3410889050952943  2.6588958118381836  9.9999993353002488
  2.6821773101906241  0.0000000000000000  9.9999993353002488
  2.6821774373892335  1.3528315013228034 12.3160136284338844
  1.3410890322939042  4.0117273131609865 12.3160136284338844
 -1.3410882778967195  4.0117273131609865 12.3160136284338844
  0.0000001271986100  1.3528315013228034 12.3160136284338844
 -0.0034433132875606  2.7267281738461859 14.6981511454489731
  1.3401706147486561  0.1057041052032961 14.4811754503278944
  4.0223917947341796  0.0497445478884365 14.5764707782020917
  2.6846562846519748  2.7268914353668237 14.6982722611269967
  1.3405091442092663  3.7976817599520070 15.7302140469546643
