In Sc In Sc In Sc  H 
 1.0000000000000000
     6.4573755430315458    0.0000000000000000    0.0000000000000000
    -3.2286877715157729    5.5922506042537563    0.0000000000000000
     0.0000000000000000    0.0000000000000000   25.2724232115489329
 In  Sc  In  Sc  In  Sc  H  
   3   1   3   1   3   1   1
Cartesian
  0.0000000000000000  0.0000000000000000  9.9999992923310419
 -1.6143437857578935  2.7961255021268641  9.9999992923310419
  1.6143437857578935  2.7961255021268641  9.9999992923310419
  3.2286876715157802  0.0000000000000000  9.9999992923310419
  3.2286876715157802  1.8640836680845760 12.6362117057744605
  1.6143437857578935  4.6602091702114397 12.6362117057744605
 -1.6143437857578935  4.6602091702114397 12.6362117057744605
  0.0000000000000000  1.8640836680845760 12.6362117057744605
  0.0000054999996108  3.7446711350012292 15.4685749053368955
  1.6280706847864832  0.9244905345766701 15.4686387053323795
  4.8293132582444676  0.9244898345767195 15.4686272053331937
  3.2286935715153620  3.7282059361664204 15.2346662218898867
  3.2286889715156875  3.7279608361837653 17.0753611916296073
