In Os In Os In Os In  H 
 1.0000000000000000
     5.6426256006888735    0.0000000000000000    0.0000000000000000
     1.8900238662488684    5.3166756237553434    0.0000000000000000
     0.0000000000000000    0.0000000000000000   24.6099532584298792
 In  Os  In  Os  In  Os  In  H  
   1   2   2   2   2   2   1   1
Cartesian
  0.0000000000000000  0.0000000000000000  9.9999994243974566
  0.9450119331244342  2.6583378118776717  9.9999994243974566
  2.8213128003444368  0.0000000000000000  9.9999994243974566
  3.7663247334688710  2.6583378118776717  9.9999994243974566
  5.6426257453915625  3.9826638536909900 12.3049766292149396
  4.6976138122671287  1.3243260418133183 12.3049766292149396
  2.8213129450471266  3.9826638536909900 12.3049766292149396
  1.8763010119226924  1.3243260418133183 12.3049766292149396
  4.1135316921464407  2.9035090669549497 14.8548399482613593
  4.6700780654858267  5.6665162771541695 14.5554758633421777
  6.9033076494168055  2.5023150318235921 14.5553692284147118
  7.4349638735128307  5.2476753236927642 14.8078268654730891
  1.9891259295632626  1.4037212189549797 15.8492364873586258
