 H Pd  H Pd  H Pd  H Pd  H Pd  H Pd  H Pd  H Pd  H Pd  H Pd  H Pd  H Pd  H Pd  H Pd  H Pd  H Pd 
 1.0000000000000000
     5.8931382823930001    0.0000000000000000    0.0000000000000000
     2.9465691411970001    5.1036074605669999    0.0000000000000000
     0.0000000000000000    0.0000000000000000   28.4203863316440000
 H   Pd  H   Pd  H   Pd  H   Pd  H   Pd  H   Pd  H   Pd  H   Pd  H   Pd  H   Pd  H   Pd  H   Pd  H   Pd  H   Pd  H   Pd  H   Pd 
   1   1   1   1   1   1   1   1   1   1   1   1   1   1   1   1   1   1   1   1   1   1   1   1   1   1   1   1   1   1   1   1
Cartesian
  2.9465691411965844  1.7012024868556936  9.9999318146270788
  1.4732845705982938  0.8506012434278455 11.2028636292541570
  0.0000000000000006  0.0000000000000007 12.4057954438812352
  2.9465691411965849  1.7012024868556921 13.6087272585083170
  1.4729628600062212  0.8505794940531582 15.0832131935356397
 -0.0000992199148917  0.0000127207414332 15.9850449765355211
  2.9467451964598004  1.7011019771703195 17.8038113383561694
  1.4734114812682200  0.8505003129038138 18.4099961682156348
  4.4198537117948771  4.2530062171392329  9.9999318146270788
  2.9465691411965862  3.4024049737113846 11.2028636292541570
  1.4732845705982929  2.5518037302835399 12.4057954438812352
  4.4198537117948771  4.2530062171392311 13.6087272585083170
  2.9462176906486248  3.4023356366954784 15.0830518701077025
  1.4732062048989618  2.5518094252482819 15.9851144070599638
  4.4199400723427367  4.2529365276045210 17.8037383375325540
  2.9468410022814595  3.4023614715568327 18.4099738763495253
  5.8931382823931688  1.7012024868556936  9.9999318146270788
  4.4198537117948788  0.8506012434278455 11.2028636292541570
  2.9465691411965853  0.0000000000000007 12.4057954438812352
  5.8931382823931697  1.7012024868556921 13.6087272585083170
  4.4196581890410052  0.8503604219426247 15.0831680050721602
  2.9463408360968626  0.0000304584157556 15.9849231466226378
  5.8931435114757980  1.7011711529300544 17.8038758341041259
  4.4199301011725574  0.8507744709631887 18.4101268295515794
  7.3664228529914615  4.2530062171392329  9.9999318146270788
  5.8931382823931706  3.4024049737113846 11.2028636292541570
  4.4198537117948780  2.5518037302835399 12.4057954438812352
  7.3664228529914624  4.2530062171392311 13.6087272585083170
  5.8931511173189639  3.4023538809086991 15.0829777091584489
  4.4197519380904122  2.5518740370688731 15.9847633422943325
  7.3664533155929766  4.2530334080178402 17.8041381724015899
  5.8930204049545640  3.4023341573757158 18.4100608409394475
