 H Pd  H Pd  H Pd  H Pd  H Pd  H Pd  H Pd  H Pd  H Pd  H Pd  H Pd  H Pd  H Pd  H Pd  H Pd  H Pd 
 1.0000000000000000
     5.8931382823930001    0.0000000000000000    0.0000000000000000
     2.9465691411970001    5.1036074605669999    0.0000000000000000
     0.0000000000000000    0.0000000000000000   28.4203863316440000
 H   Pd  H   Pd  H   Pd  H   Pd  H   Pd  H   Pd  H   Pd  H   Pd  H   Pd  H   Pd  H   Pd  H   Pd  H   Pd  H   Pd  H   Pd  H   Pd 
   1   1   1   1   1   1   1   1   1   1   1   1   1   1   1   1   1   1   1   1   1   1   1   1   1   1   1   1   1   1   1   1
Cartesian
  2.9465691411965844  1.7012024868556936  9.9999318146270788
  1.4732845705982938  0.8506012434278455 11.2028636292541570
  0.0000000000000006  0.0000000000000007 12.4057954438812352
  2.9465691411965849  1.7012024868556921 13.6087272585083170
  1.4732697538901554  0.8505559495538000 14.9879751800803618
  0.0022412026559500  0.0013090295566408 15.9866213377259889
  2.9341312308560803  1.6938994774008496 17.7922989392073525
  1.4732166235787401  0.8504588508896270 18.4214205283142043
  4.4198537117948771  4.2530062171392329  9.9999318146270788
  2.9465691411965862  3.4024049737113846 11.2028636292541570
  1.4732845705982929  2.5518037302835399 12.4057954438812352
  4.4198537117948771  4.2530062171392311 13.6087272585083170
  2.8859324239914819  3.4373482863222540 15.0484681612115718
  1.4733014876204094  2.5490875409854814 15.9866187729408384
  4.4197552377612475  4.2672618101202584 17.7922857921127822
  2.9321261194660102  3.4106104347510864 18.3871487313976516
  5.8931382823931688  1.7012024868556936  9.9999318146270788
  4.4198537117948788  0.8506012434278455 11.2028636292541570
  2.9465691411965853  0.0000000000000007 12.4057954438812352
  5.8931382823931697  1.7012024868556921 13.6087272585083170
  4.4198680330644073  0.7805360488919224 15.0484256443137774
  2.9442520049152030  0.0012797402878339 15.9866542371732869
  5.9054176384565187  1.6940317520189081 17.7922787530754967
  4.4198417753385275  0.8339137587405518 18.3871583898705850
  7.3664228529914615  4.2530062171392329  9.9999318146270788
  5.8931382823931706  3.4024049737113846 11.2028636292541570
  4.4198537117948780  2.5518037302835399 12.4057954438812352
  7.3664228529914624  4.2530062171392311 13.6087272585083170
  5.9537790377118487  3.4374429581133863 15.0484187107462013
  4.4198172773808526  2.5517588513009173 15.9894264559755239
  7.3663868438965050  4.2529814277681934 19.0899973470250082
  5.9074264488636672  3.4106219920837892 18.3871020866349397
