 H Pd  H Pd  H Pd  H Pd  H Pd  H Pd  H Pd  H Pd  H Pd  H Pd  H Pd  H Pd  H Pd  H Pd  H Pd  H Pd 
 1.0000000000000000
     5.8931382823930001    0.0000000000000000    0.0000000000000000
     2.9465691411970001    5.1036074605669999    0.0000000000000000
     0.0000000000000000    0.0000000000000000   28.4203863316440000
 H   Pd  H   Pd  H   Pd  H   Pd  H   Pd  H   Pd  H   Pd  H   Pd  H   Pd  H   Pd  H   Pd  H   Pd  H   Pd  H   Pd  H   Pd  H   Pd 
   1   1   1   1   1   1   1   1   2   1   1   1   1   1   1   1   1   1   1   1   1   1   1   1   1   1   1   1   1   1   1   1
Cartesian
  2.9465691411965844  1.7012024868556936  9.9999318146270788
  1.4732845705982938  0.8506012434278455 11.2028636292541570
  0.0000000000000006  0.0000000000000007 12.4057954438812352
  2.9465691411965849  1.7012024868556921 13.6087272585083170
  1.4629227204388136  0.8542193554209485 15.0425011289643002
 -0.0002769995986603  0.0086981645470813 16.0057830130888306
  2.9434685068588591  1.7168399314487399 19.0667250644862492
  1.4760222366770268  0.8689051803485336 18.3769824623612408
  7.3695729852657967  4.2757144447317508 19.1404596938223008
  4.4198537117948771  4.2530062171392329  9.9999318146270788
  2.9465691411965862  3.4024049737113846 11.2028636292541570
  1.4732845705982929  2.5518037302835399 12.4057954438812352
  4.4198537117948771  4.2530062171392311 13.6087272585083170
  3.0672804591651430  3.3437017597992313 14.9359893820206242
  1.4718838376783958  2.5564380139091640 16.0064809408559015
  4.4208706167849661  4.2771718229784019 19.0641480875802216
  2.9439397900875872  3.4221660712636015 18.3942293958434568
  5.8931382823931688  1.7012024868556936  9.9999318146270788
  4.4198537117948788  0.8506012434278455 11.2028636292541570
  2.9465691411965853  0.0000000000000007 12.4057954438812352
  5.8931382823931697  1.7012024868556921 13.6087272585083170
  4.4135003256700189  1.0066311792460472 14.9401322816081130
  2.9410099213508403  0.0102980487980676 16.0058306854315582
  5.8989632241608367  1.7162721333892570 19.0653858177641986
  4.4212372523829444  0.8649087590380196 18.3911367782202824
  7.3664228529914615  4.2530062171392329  9.9999318146270788
  5.8931382823931706  3.4024049737113846 11.2028636292541570
  4.4198537117948780  2.5518037302835399 12.4057954438812352
  7.3664228529914624  4.2530062171392311 13.6087272585083170
  5.7547191192693825  3.3440740773617121 14.9049416593145700
  4.4206921631375078  2.5621756659982577 16.0114981483506007
  7.3590859941718856  4.2586054124529138 16.7860052954100105
  5.8954256942372467  3.4202387570554591 18.3973646505927206
