Nb Hg Nb Hg Nb Hg Nb  H 
 1.0000000000000000
     5.8934665829376351    0.0000000000000000    0.0000000000000000
    -2.9467327914688530    5.3684676200901844    0.0000000000000000
     0.0000000000000000    0.0000000000000000   24.9262902360436911
 Nb  Hg  Nb  Hg  Nb  Hg  Nb  H  
   1   2   2   2   2   2   1   1
Cartesian
  0.0000000000000000  0.0000000000000000  9.9999994339607650
 -1.4733663957344265  2.6842338100450922  9.9999994339607650
  1.4733668957343911  2.6842338100450922  9.9999994339607650
  2.9467332914688176  0.0000000000000000  9.9999994339607650
  2.9467334421125257  1.6174518552429291 12.4631451180218455
  1.4733670463780992  4.3016856652880211 12.4631451180218455
 -1.4733662450907181  4.3016856652880211 12.4631451180218455
  0.0000001506437083  1.6174518552429291 12.4631451180218455
  0.0842278833866688  3.0386734795978994 14.7948025272794172
  1.4733407055782015  0.2840730975962513 15.2248442219969196
  4.4198916092167861  0.5079808981454622 15.1272290557101652
  2.8620278872686047  3.0388173706355208 14.7950572490393384
  1.4731651651834392  3.1257120800666232 16.1044045908754327
