Zn Cd Zn Cd Zn Cd Zn  H 
 1.0000000000000000
     6.1004745682883215    0.0000000000000000    0.0000000000000000
     2.9444177916326786    5.3428636219021000    0.0000000000000000
     0.0000000000000000    0.0000000000000000   25.0070512303284858
 Zn  Cd  Zn  Cd  Zn  Cd  Zn  H  
   1   2   2   2   2   2   1   1
Cartesian
  0.0000000000000000  0.0000000000000000  9.9999990965833838
  1.4722088958163393  2.6714318109510500  9.9999990965833838
  3.0502372841441607  0.0000000000000000  9.9999990965833838
  4.5224461799605002  2.6714318109510500  9.9999990965833838
  6.1004742427191960  3.6035809615825918 12.5035256151642429
  4.6282653469028565  0.9321491506315416 12.5035256151642429
  3.0502369585750353  3.6035809615825918 12.5035256151642429
  1.5780280627586958  0.9321491506315416 12.5035256151642429
  3.1790194234288367  1.8763109767731592 14.9274850232321104
  4.5127052314313572  4.4175770964211196 15.2915135682458434
  6.0484549360540285  1.8203858875268046 15.2915378250855376
  7.5649834734264694  4.4692536473726099 14.9062228029305732
  2.0925344723733019  1.2381681294409668 16.0271222625967980
