Ga In Ga In Ga In Ga  H 
 1.0000000000000000
     6.3732695489834654    0.0000000000000000    0.0000000000000000
     2.7682648040984792    5.7406685937506747    0.0000000000000000
     0.0000000000000000    0.0000000000000000   25.2754342113358526
 Ga  In  Ga  In  Ga  In  Ga  H  
   1   2   2   2   2   2   1   1
Cartesian
  0.0000000000000000  0.0000000000000000  9.9999991536507995
  1.3841324020492396  2.8703342968753374  9.9999991536507995
  3.1866347744917327  0.0000000000000000  9.9999991536507995
  4.5707671765409721  2.8703342968753374  9.9999991536507995
  6.3732696256561150  4.0022634457610966 12.6377171056679263
  4.9891372236068756  1.1319291488857592 12.6377171056679263
  3.1866348511643827  4.0022634457610966 12.6377171056679263
  1.8025024491151429  1.1319291488857592 12.6377171056679263
  3.9290364545139518  2.2405440017044800 15.3097768912497330
  4.9221803883435138  5.1037681016423297 15.2691020954399299
  7.2848388507083417  2.5782216384294250 15.2296524504772197
  8.2783838269841414  5.4426466403117386 15.3167215695536374
  4.6907683237872426  0.9552551646414345 16.3590164537542719
