Cu  H 
 1.0000000000000000
     7.8085065966819247    0.0000000000000000    0.0000000000000000
     1.3014177661136512    6.7623650783449198    0.0000000000000000
     0.0000000000000000    0.0000000000000000   27.7924231468629159
 Cu  H  
  36   1
Cartesian
  2.6028355322273078  0.5009159317292499 10.0000000000000000
  1.3014177661136512  4.7587013514279031 10.7084021042602657
  1.3014177661136521  2.2541216927816370 11.4168042085205315
  2.6028355322273042  6.5119071124802907 12.1252063127807954
  2.6028355322273060  4.0073274538340247 12.8336084170410611
  2.6028355322273073  1.5027477951877550 13.5420105213013251
  1.2967589925277179  5.7663416702516841 14.2520069910640501
  1.3077526571193889  3.2951358993374713 14.9955634122711192
  1.2939714063347723  0.7763307913199061 15.6538063450791753
  2.6123244177276495  5.0162718455770170 16.4363683725841625
  2.6123525790964077  2.5299282477230416 17.0852998895812647
 -0.0026204173235708  0.0377288631293408 17.6926149803794743
  5.2056710644546165  0.5009159317292499 10.0000000000000000
  3.9042532983409597  4.7587013514279031 10.7084021042602657
  3.9042532983409606  2.2541216927816370 11.4168042085205315
  5.2056710644546129  6.5119071124802907 12.1252063127807954
  5.2056710644546147  4.0073274538340247 12.8336084170410611
  5.2056710644546156  1.5027477951877550 13.5420105213013251
  3.8933685792889756  5.7708537042165409 14.2585417343327983
  3.8967582322394709  3.2858413091396699 14.9664985503350056
  3.9006914348188615  0.7571558297779696 15.6068672564839144
  5.1998376209525903  4.9920324299270460 16.4139582601398857
  5.1916215679216977  2.5235003732524519 17.0839392744815477
  2.6068127610399068  0.0695949490804288 17.6988585656102906
  7.8085065966819247  0.5009159317292499 10.0000000000000000
  6.5070888305682679  4.7587013514279031 10.7084021042602657
  6.5070888305682688  2.2541216927816370 11.4168042085205315
  7.8085065966819212  6.5119071124802907 12.1252063127807954
  7.8085065966819229  4.0073274538340247 12.8336084170410611
  7.8085065966819238  1.5027477951877550 13.5420105213013251
  6.5108761480210529  5.7653515429768936 14.2598304193878072
  6.4973457898543314  3.2751374356321952 14.9844324350811444
  6.5070051340920072  0.7686505908361007 15.6549162117735765
  7.7927389580410837  5.0150347956964740 16.4414929288285236
  7.8050434520280874  2.5179884690024288 17.0506937599769941
  5.1980581608833125  0.0647109871145610 17.6991150130472086
  3.9025127104912443  1.3773559253038405 17.9907471488958990
