Cu  H 
 1.0000000000000000
     7.8085065966819247    0.0000000000000000    0.0000000000000000
     1.3014177661136512    6.7623650783449198    0.0000000000000000
     0.0000000000000000    0.0000000000000000   27.7924231468629159
 Cu  H  
  36   1
Cartesian
  2.6028355322273078  0.5009159317292499 10.0000000000000000
  1.3014177661136512  4.7587013514279031 10.7084021042602657
  1.3014177661136521  2.2541216927816370 11.4168042085205315
  2.6028355322273042  6.5119071124802907 12.1252063127807954
  2.6028355322273060  4.0073274538340247 12.8336084170410611
  2.6028355322273073  1.5027477951877550 13.5420105213013251
  1.2952573800388569  5.7731053658313485 14.2655894473131877
  1.2963750511265171  3.2844923873939211 14.9700441200019192
  1.2990210433929348  0.7699031026730554 15.6539700247707376
  2.5979042238039591  4.9970628131002810 16.4019953390481099
  2.6048374591267835  2.5253749520909601 17.0301025638452828
  0.0182654112597812  0.0277304407880345 17.7759884733765112
  5.2056710644546165  0.5009159317292499 10.0000000000000000
  3.9042532983409597  4.7587013514279031 10.7084021042602657
  3.9042532983409606  2.2541216927816370 11.4168042085205315
  5.2056710644546129  6.5119071124802907 12.1252063127807954
  5.2056710644546147  4.0073274538340247 12.8336084170410611
  5.2056710644546156  1.5027477951877550 13.5420105213013251
  3.9022569567850107  5.7704918317896370 14.2673472628132032
  3.9057773563732896  3.2768772786652081 14.9687743776584874
  3.8905129063379533  0.7492595304756555 15.6986385767290368
  5.2010504052293598  5.0021578460724392 16.4255488164204593
  5.2029798429358429  2.4996590412282171 17.0407641487516237
  2.5813770627881616  0.0210385020730394 17.7743971842070607
  7.8085065966819247  0.5009159317292499 10.0000000000000000
  6.5070888305682679  4.7587013514279031 10.7084021042602657
  6.5070888305682688  2.2541216927816370 11.4168042085205315
  7.8085065966819212  6.5119071124802907 12.1252063127807954
  7.8085065966819229  4.0073274538340247 12.8336084170410611
  7.8085065966819238  1.5027477951877550 13.5420105213013251
  6.5039281221628107  5.7762405491138287 14.2542098143685294
  6.4987015520860911  3.2866527594493338 14.9673290059394688
  6.5175980730911425  0.7563620227056671 15.6980095036333900
  7.8045436544314519  5.0132806363725289 16.4223254394514555
  7.7999253503237407  2.5324663523722477 17.0319530420660357
  5.2045990523302290  0.0220158861842263 17.7007007582488036
  1.3003386194193662 -0.0594610112813201 18.8122385893606712
