Cu  H 
 1.0000000000000000
     7.8085065966819247    0.0000000000000000    0.0000000000000000
     1.3014177661136512    6.7623650783449198    0.0000000000000000
     0.0000000000000000    0.0000000000000000   27.7924231468629159
 Cu  H  
  36   1
Cartesian
  2.6028355322273078  0.5009159317292499 10.0000000000000000
  1.3014177661136512  4.7587013514279031 10.7084021042602657
  1.3014177661136521  2.2541216927816370 11.4168042085205315
  2.6028355322273042  6.5119071124802907 12.1252063127807954
  2.6028355322273060  4.0073274538340247 12.8336084170410611
  2.6028355322273073  1.5027477951877550 13.5420105213013251
  1.2831881502723770  5.7636639236122038 14.2705014052599655
  1.2909131628050881  3.2839080520205637 14.9757416371103353
  1.2985960879773635  0.7599049650677614 15.6534927050331110
  2.6008992321897484  5.0071394300795147 16.4120722229237899
  2.6022188905284249  2.5286881638284329 17.0354376231979252
  0.0130662356092494  0.0378152264989596 17.6926232758504725
  5.2056710644546165  0.5009159317292499 10.0000000000000000
  3.9042532983409597  4.7587013514279031 10.7084021042602657
  3.9042532983409606  2.2541216927816370 11.4168042085205315
  5.2056710644546129  6.5119071124802907 12.1252063127807954
  5.2056710644546147  4.0073274538340247 12.8336084170410611
  5.2056710644546156  1.5027477951877550 13.5420105213013251
  3.9157339551195949  5.7675212816768582 14.2711459262492326
  3.9080048246250749  3.2963841059972578 14.9724352386576331
  3.8930023858633409  0.7696918276522350 15.6508152792120239
  5.1933811966137879  4.9704245525235731 16.4785688417978484
  5.1933021871595360  2.4589677278648274 17.0437747199339817
  2.5803707188168432  0.0675620436877540 17.6894182365296189
  7.8085065966819247  0.5009159317292499 10.0000000000000000
  6.5070888305682679  4.7587013514279031 10.7084021042602657
  6.5070888305682688  2.2541216927816370 11.4168042085205315
  7.8085065966819212  6.5119071124802907 12.1252063127807954
  7.8085065966819229  4.0073274538340247 12.8336084170410611
  7.8085065966819238  1.5027477951877550 13.5420105213013251
  6.5017606946437434  5.7686203007437422 14.2596533320754748
  6.4997764832101685  3.2753767969274103 14.9567430601553149
  6.5063714865761213  0.7602929922439797 15.6509306235519219
  7.8048659585767766  4.9649535850036948 16.4688222099221733
  7.8040711225639967  2.4749503207016708 17.0353507780156050
  5.2049701619846305  0.0326068099322340 17.6851078927292669
  6.5034171996097383  5.0822554572194907 17.6904384784176898
