Cu  H 
 1.0000000000000000
     7.3619306206049053    0.0000000000000000    0.0000000000000000
     0.0000000000000000    5.8201171843121067    0.0000000000000000
     0.0000000000000000    0.0000000000000000   27.5661523396057362
 Cu  H  
  28   1
Cartesian
  1.8404826551512325  5.2381054658809010 10.0000000000000000
  0.0000000000000053  3.4920703105872692 10.5820117184312110
  1.8404826551512310  1.7460351552936371 11.1640234368624220
  0.0000000000000043  0.0000000000000044 11.7460351552936331
  1.8404826551512339  4.0740820290184780 12.3280468737248423
  0.0000000000000062  2.3280468737248450 12.9100585921560516
  1.8404826551512345  0.5820117184312128 13.4920703105872644
 -0.0189579070634936  4.6818081962070810 14.0854347804709334
  1.8404884677846933  2.9224920024395398 14.6657465998047361
 -0.0163480819330147  1.1956736339369045 15.2108231667022213
  1.8404423827966292  5.1936264142668689 15.7999859599588763
 -0.0150689506125569  3.4985269145066749 16.4042320232960499
  1.8404375289099826  1.8012845608465338 16.9247710828130025
  0.1024210741360090  0.0706824735323601 17.4607604997811343
  5.5214479654536852  5.2381054658809010 10.0000000000000000
  3.6809653103024580  3.4920703105872692 10.5820117184312110
  5.5214479654536834  1.7460351552936371 11.1640234368624220
  3.6809653103024571  0.0000000000000044 11.7460351552936331
  5.5214479654536870  4.0740820290184780 12.3280468737248423
  3.6809653103024589  2.3280468737248450 12.9100585921560516
  5.5214479654536870  0.5820117184312128 13.4920703105872644
  3.6999239942829414  4.6818149863391731 14.0854215086727930
  5.5214422262600173  2.9537322482293029 14.6604582809275819
  3.6972860031497925  1.1956625736669904 15.2108230809426228
  5.5214139901165975  5.2376559470258952 15.9540887736316161
  3.6959982859528338  3.4985174667842327 16.4042363158435229
  5.5214197330437385  1.7367215417112565 16.9359048881947061
  3.5782843365628096  0.0707186679481727 17.4608835753331455
  1.8404994670337080  0.4274389382523084 17.9699157927220483
