La Ag La Ag La Ag  H 
 1.0000000000000000
     6.7063245254141970    0.0000000000000000    0.0000000000000000
     2.2205638428575787    6.3280235521853854    0.0000000000000000
     0.0000000000000000    0.0000000000000000   25.4710641974917280
 La  Ag  La  Ag  La  Ag  H  
   2   2   2   2   2   2   1
Cartesian
  0.0000000000000000  0.0000000000000000  9.9999992923310419
  4.4634443841358742  3.1640118760926854  9.9999992923310419
  3.3531622627070985  0.0000000000000000  9.9999992923310419
  1.1102821214287755  3.1640118760926854  9.9999992923310419
  6.7063245254141970  4.7539273635792938 12.7355320987458640
  2.2428802412783169  1.5899154874866086 12.7355320987458640
  3.3531622627070985  4.7539273635792938 12.7355320987458640
  5.5960425039854149  1.5899154874866086 12.7355320987458640
  4.4842870826609014  3.1787813750474938 15.6699311910875334
  0.0193134986332436  0.0136953990308191 15.5023238029485881
  1.1309303199675662  3.1787186750519307 15.2429525213034918
  3.3738672612418701  0.0146368989641920 15.2429245213054720
  4.4848902826182142  3.1791974750180478 17.7774939419418487
