Ir Pd Ir Pd Ir Pd Ir Pd Ir  H 
 1.0000000000000000
     5.5554186068602425    0.0000000000000000    0.0000000000000000
     2.7484648054996637    4.7941296607343018    0.0000000000000000
     0.0000000000000000    0.0000000000000000   24.5277892642443724
 Ir  Pd  Ir  Pd  Ir  Pd  Ir  Pd  Ir  H  
   1   1   1   2   2   2   1   1   1   1
Cartesian
  1.3449876401052019  0.8213761732978537  9.9999993543194208
  4.1226969435353231  0.8213761732978537  9.9999993543194208
  2.7192200428550342  3.2184410036650051  9.9999993543194208
  5.4969293462851549  3.2184410036650051  9.9999993543194208
  2.7484646703648683  1.6092205018325025 12.2638946321221862
  5.5261739737949895  1.6092205018325025 12.2638946321221862
  6.9004063765448205  4.0062853321996528 12.2638946321221862
  4.1226970731147006  4.0062853321996528 12.2638946321221862
  0.1230863434869019 -0.0756972410731108 14.6613513751390112
  2.9252170865665899 -0.0845707915447572 14.4212520836995068
  1.5017327120358530  2.3290891487612493 14.6613455620529578
  4.2986245966161922  2.3129515330276584 14.4297855713902212
  0.7358844788516030  1.1705849979732874 15.7188786354390206
