Os Zn Os Zn Os Zn Os  H 
 1.0000000000000000
     5.5721976056728453    0.0000000000000000    0.0000000000000000
     2.5354458205743571    4.6719936693774873    0.0000000000000000
     0.0000000000000000    0.0000000000000000   24.4647782687034656
 Os  Zn  Os  Zn  Os  Zn  Os  H  
   1   2   2   2   2   2   1   1
Cartesian
  1.0170703194236357  0.9600346686104159  9.9999994261544138
  5.0708920325472375  3.2960315032991594  9.9999994261544138
  3.8031691222600585  0.9600346686104159  9.9999994261544138
  2.2847932297108144  3.2960315032991594  9.9999994261544138
  5.3215448203777642  1.6480157539855766 12.2323891343517328
  2.5354460175413416  1.6480157539855766 12.2323891343517328
  3.8031689278285197  3.9840125886743198 12.2323891343517328
  6.5892677306649423  3.9840125886743198 12.2323891343517328
  2.9379776480848419 -0.0762315331211127 14.2960084473385116
  0.1154409677305145 -0.1061682202364461 14.6057354025993522
  1.3347208899413192  2.2565270493155123 14.5906995945231905
  4.1087586940941732  2.2112609436117738 14.4727767700015448
  4.5999639575536158  2.5217203097506089 16.0086315620394188
