Cu  H 
 1.0000000000000000
     7.8085065966819247    0.0000000000000000    0.0000000000000000
     1.3014177661136512    6.7623650783449198    0.0000000000000000
     0.0000000000000000    0.0000000000000000   27.7924231468629159
 Cu  H  
  36   1
Cartesian
  2.6028355322273078  0.5009159317292499 10.0000000000000000
  1.3014177661136512  4.7587013514279031 10.7084021042602657
  1.3014177661136521  2.2541216927816370 11.4168042085205315
  2.6028355322273042  6.5119071124802907 12.1252063127807954
  2.6028355322273060  4.0073274538340247 12.8336084170410611
  2.6028355322273073  1.5027477951877550 13.5420105213013251
  1.2942143863672568  5.7578419595181520 14.2571614651293697
  1.3162583093566744  3.2748419753620284 14.9929541829275710
  1.2927765142171257  0.7555007312501006 15.6378473618843969
  2.6165147304509935  4.9969257374480724 16.4443349381318207
  2.6010121303661613  2.5186408585540279 17.1371747231986795
 -0.0196189500084803  0.0041732847260639 17.6700817956933527
  5.2056710644546165  0.5009159317292499 10.0000000000000000
  3.9042532983409597  4.7587013514279031 10.7084021042602657
  3.9042532983409606  2.2541216927816370 11.4168042085205315
  5.2056710644546129  6.5119071124802907 12.1252063127807954
  5.2056710644546147  4.0073274538340247 12.8336084170410611
  5.2056710644546156  1.5027477951877550 13.5420105213013251
  3.8994581475674632  5.7625814247715788 14.2644966175768904
  3.8884638560752203  3.2725332227813388 14.9874371317284556
  3.9043485410767742  0.7612496054050647 15.6410798916713940
  5.1858601604063059  5.0069351236181614 16.4330127563053949
  5.2191587726885711  2.5101811689531277 17.0379436628105267
  2.6004097671568611  0.0788667788842586 17.7175872068358409
  7.8085065966819247  0.5009159317292499 10.0000000000000000
  6.5070888305682679  4.7587013514279031 10.7084021042602657
  6.5070888305682688  2.2541216927816370 11.4168042085205315
  7.8085065966819212  6.5119071124802907 12.1252063127807954
  7.8085065966819229  4.0073274538340247 12.8336084170410611
  7.8085065966819238  1.5027477951877550 13.5420105213013251
  6.5063935304171210  5.7659376021424240 14.2554013521943652
  6.5026219322131045  3.2892782781737044 14.9657195852161244
  6.5027424195202759  0.7654066631165596 15.6528086813984135
  7.8048818778913009  4.9841928039756755 16.4209648046352221
  7.7875669376577887  2.4980605818650914 17.0345845986891575
  5.2219578904909740  0.0124859363958011 17.6698963165844383
  2.6023088706992037  1.5511441629341765 18.5069185226053605
