Ir Cu Ir Cu Ir Cu  H 
 1.0000000000000000
     5.4345676154124920    0.0000000000000000    0.0000000000000000
    -2.7172838077062460    4.7064736669374447    0.0000000000000000
     0.0000000000000000    0.0000000000000000   24.4373042706477115
 Ir  Cu  Ir  Cu  Ir  Cu  H  
   3   1   3   1   3   1   1
Cartesian
  0.0000000000000000  0.0000000000000000  9.9999991776999799
 -1.3586419038531230  2.3532368334687224  9.9999991776999799
  1.3586419038531230  2.3532368334687224  9.9999991776999799
  2.7172838077062460  0.0000000000000000  9.9999991776999799
  2.7172838104235297  1.5688245540769905 12.2186521353238557
  1.3586419065704067  3.9220613875457127 12.2186521353238557
 -1.3586419011358393  3.9220613875457127 12.2186521353238557
  0.0000000027172837  1.5688245540769905 12.2186521353238557
 -0.0101363191125761  3.0662586752421466 14.4788991198649786
  1.3703677497574092  0.8166480141449509 14.3605820990191688
  4.0413198332966918  0.8129442405733335 14.3642621126692873
  2.7098030194095619  3.1700328709169718 14.4880613983551711
 -0.0432576311051838  3.3376145797386201 16.0507352932601641
