Ir Zn Ir Zn Ir Zn Ir Zn  H 
 1.0000000000000000
     5.2735056268103504    0.0000000000000000    0.0000000000000000
     1.7645018751316708    4.9695466483205859    0.0000000000000000
     0.0000000000000000    0.0000000000000000   24.3078212798108204
 Ir  Zn  Ir  Zn  Ir  Zn  Ir  Zn  H  
   1   1   1   2   2   2   2   1   1
Cartesian
  2.6467521047916045  0.0070605132178814  9.9999992877108816
  0.0099992913864291  0.0070605132178814  9.9999992877108816
  0.8922502289522646  2.4918338373781745  9.9999992877108816
  3.5290030423574397  2.4918338373781745  9.9999992877108816
  1.7645015211787198  1.2459169186890873 12.1539106399054102
  4.4012543345838946  1.2459169186890873 12.1539106399054102
  2.6467524587445554  3.7306902428493798 12.1539106399054102
  5.2835052721497302  3.7306902428493798 12.1539106399054102
  0.1535894293983781 -0.2132876744264723 14.4659854254352513
  2.8204828050838628  0.1297315756920565 14.2521130112891914
  0.7009660340139141  2.3567668172571747 14.2547724813997743
  3.3693981219770390  2.7008736675683283 14.4659848663553632
  4.4086727610718333  1.2511542195412726 14.9388381804450283
