Ir Mn Ir Mn Ir Mn  H 
 1.0000000000000000
     5.4186306165403053    0.0000000000000000    0.0000000000000000
    -2.7093148082701877    4.6926716679141691    0.0000000000000000
     0.0000000000000000    0.0000000000000000   24.4242922715685324
 Ir  Mn  Ir  Mn  Ir  Mn  H  
   3   1   3   1   3   1   1
Cartesian
  0.0000000000000000  0.0000000000000000  9.9999992923310419
 -1.3546576041350797  2.3463358339570846  9.9999992923310419
  1.3546576041350797  2.3463358339570846  9.9999992923310419
  2.7093153082701527  0.0000000000000000  9.9999992923310419
  2.7093153082701527  1.5642238893047233 12.2121459357842799
  1.3546576041350797  3.9105597232618079 12.2121459357842799
 -1.3546576041350797  3.9105597232618079 12.2121459357842799
  0.0000000000000000  1.5642238893047233 12.2121459357842799
  0.0000044999996815  3.1254503788215633 14.4622288765528850
  1.3410968050947354  0.8104586426463536 14.3559292840753780
  4.0775879114417410  0.8104408426476133 14.3558856840784603
  2.7093289082691903  3.1557376766782248 14.4490855774829932
 -0.0000055999996037  3.0704248827155469 16.0726835625859970
