Ir Mn Ir Mn Ir Mn  H 
 1.0000000000000000
     5.4186306165403053    0.0000000000000000    0.0000000000000000
    -2.7093148082701877    4.6926716679141691    0.0000000000000000
     0.0000000000000000    0.0000000000000000   24.4242922715685324
 Ir  Mn  Ir  Mn  Ir  Mn  H  
   3   1   3   1   3   1   1
Cartesian
  0.0000000000000000  0.0000000000000000  9.9999992923310419
 -1.3546576041350797  2.3463358339570846  9.9999992923310419
  1.3546576041350797  2.3463358339570846  9.9999992923310419
  2.7093153082701527  0.0000000000000000  9.9999992923310419
  2.7093153082701527  1.5642238893047233 12.2121459357842799
  1.3546576041350797  3.9105597232618079 12.2121459357842799
 -1.3546576041350797  3.9105597232618079 12.2121459357842799
  0.0000000000000000  1.5642238893047233 12.2121459357842799
  0.0000794999943740  3.1133322796791232 14.3577724839449399
  1.3416559050551695  0.7897113441145756 14.3577526839463410
  4.0770223114817670  0.7896289441204069 14.3577234839484067
  2.7091686082805340  3.1282784786214273 14.4301520788228590
  2.7093418082682770  3.1284687786079601 16.0083293671401421
