Os Fe Os Fe Os Fe Os Fe Os  H 
 1.0000000000000000
     5.2323436297232577    0.0000000000000000    0.0000000000000000
     2.5343108206546776    4.5776286760554052    0.0000000000000000
     0.0000000000000000    0.0000000000000000   24.2925412808921379
 Os  Fe  Os  Fe  Os  Fe  Os  Fe  Os  H  
   1   1   1   1   1   2   1   2   2   1
Cartesian
  3.8014658814945919  0.6986066064408655  9.9999991111109043
  1.1852940666329623  0.6986066064408655  9.9999991111109043
  2.4524494769603011  2.9874209444685684  9.9999991111109043
  5.0686212918219304  2.9874209444685684  9.9999991111109043
  5.1504824607725945  1.4937104722342842 12.1462706404460690
  6.4176378710999327  3.7825248102619864 12.1462706404460690
  2.5343106459109652  1.4937104722342842 12.1462706404460690
  3.8014660562383038  3.7825248102619864 12.1462706404460690
  3.8159794797414359  2.2446146735581269 14.2297669879108764
 -0.0712555125116762 -0.0375113964964507 14.2297699516009128
  2.5744244971587982 -0.0246033671123090 14.2211540431071963
  1.2027123745213668  2.2508297154339787 14.2175789098068854
  3.1803657340472347  3.4164490893053729 15.2990773332253323
