Sn Ir Sn Ir Sn Ir Sn  H 
 1.0000000000000000
     5.7572245925790586    0.0000000000000000    0.0000000000000000
     2.3807248315234819    5.2419256290451690    0.0000000000000000
     0.0000000000000000    0.0000000000000000   24.7694352471438322
 Sn  Ir  Sn  Ir  Sn  Ir  Sn  H  
   1   2   2   2   2   2   1   1
Cartesian
  0.0000000000000000  0.0000000000000000  9.9999993508155516
  1.1903624157617410  2.6209628145225845  9.9999993508155516
  2.8786122962895293  0.0000000000000000  9.9999993508155516
  4.0689747120512703  2.6209628145225845  9.9999993508155516
  5.7572246033267067  3.7084210809869749 12.3847176235719161
  4.5668621875649666  1.0874582664643906 12.3847176235719161
  2.8786123070371783  3.7084210809869749 12.3847176235719161
  1.6882498912754373  1.0874582664643906 12.3847176235719161
  3.7537805562280342  2.4183452216535537 14.8777540485218491
  4.7571386875683377  5.0161090713224752 14.6166883870515107
  6.5347203547283179  2.2570385527328445 14.6168351954942199
  7.5635309080529094  4.8717433467624502 14.9621275381231360
  1.6003372873604149  1.0306226878314686 15.6586224335558484
