Ir Pt Ir Pt Ir Pt  H 
 1.0000000000000000
     5.5222616092066596    0.0000000000000000    0.0000000000000000
    -2.7611308046033298    4.7824186615630531    0.0000000000000000
     0.0000000000000000    0.0000000000000000   24.5089062655806629
 Ir  Pt  Ir  Pt  Ir  Pt  H  
   3   1   3   1   3   1   1
Cartesian
  0.0000000000000000  0.0000000000000000  9.9999993557116742
 -1.3805654023016649  2.3912093307815265  9.9999993557116742
  1.3805654023016649  2.3912093307815265  9.9999993557116742
  2.7611308046033298  0.0000000000000000  9.9999993557116742
  2.7611308073644603  1.5941395522602115 12.2544531327903314
  1.3805654050627956  3.9853488830417381 12.2544531327903314
 -1.3805653995405343  3.9853488830417381 12.2544531327903314
  0.0000000027611307  1.5941395522602115 12.2544531327903314
 -0.0387704402818840  3.1862457922725982 14.5108340941864640
  1.3782210365807084  0.8116495987430973 14.4427670528761620
  4.0916366348267177  0.7732565425896530 14.4392511522367375
  2.7143829107230477  3.2040507560792721 14.5754267039267464
 -1.3094300442413189  3.1830146706643796 15.6991889276951984
