Co Ir Co Ir Co Ir Co Ir Co  H 
 1.0000000000000000
     5.2198116306101081    0.0000000000000000    0.0000000000000000
     2.5058678226675002    4.5789806759597287    0.0000000000000000
     0.0000000000000000    0.0000000000000000   24.2871482812737867
 Co  Ir  Co  Ir  Co  Ir  Co  Ir  Co  H  
   1   2   1   1   1   1   2   2   1   1
Cartesian
  1.1488956108354982  0.6809460362064105  9.9999994195765343
  3.7588014261405527  0.6809460362064105  9.9999994195765343
  2.4018295221692485  2.9704363741862747  9.9999994195765343
  5.0117353374743026  2.9704363741862747  9.9999994195765343
  5.1157734801793655  1.4852181848036470 12.1435741406368933
  2.5058676648743115  1.4852181848036470 12.1435741406368933
  3.7588015762080618  3.7747085227835111 12.1435741406368933
  6.3687073915131158  3.7747085227835111 12.1435741406368933
  3.7679364553380426  2.2377691943914693 14.2374967500682796
  2.5956750707036118 -0.0572492553788676 14.2564181629669200
  6.4246597260717264  2.2418107675793757 14.3423560027425658
 -0.0753159324522609 -0.0831339812961308 14.2621731241879086
  5.8183127267827528  1.1684808739594119 15.4744372532283840
