Os Al Os Al Os Al  H 
 1.0000000000000000
     5.4664476131564435    0.0000000000000000    0.0000000000000000
    -2.7332238065782217    4.7340826649836414    0.0000000000000000
     0.0000000000000000    0.0000000000000000   24.4633342688056530
 Os  Al  Os  Al  Os  Al  H  
   3   1   3   1   3   1   1
Cartesian
  0.0000000000000000  0.0000000000000000  9.9999991477076851
  4.0998357098673326  2.3670413324918207  9.9999991477076851
  1.3666119032891109  2.3670413324918207  9.9999991477076851
  2.7332238065782217  0.0000000000000000  9.9999991477076851
  2.7332238093114456  1.5780275534165196 12.2316671344028265
  1.3666119060223347  3.9450688859083405 12.2316671344028265
 -1.3666119005558870  3.9450688859083405 12.2316671344028265
  0.0000000027332238  1.5780275534165196 12.2316671344028265
 -0.0362129495946257  3.1353549185152065 14.3955939957342292
  1.3308605842625207  0.7680020833840298 14.3955163980379286
  4.1690312118395898  0.8291563809581206 14.4056969858372312
  2.6905284536821918  3.1316914391767434 14.4365111729255595
  0.0276109230315487  4.7498811888442329 15.3912660604518354
