Cr Al Cr Al Cr Al  H 
 1.0000000000000000
     5.2040046317287212    0.0000000000000000    0.0000000000000000
    -2.6020018158643956    4.5067996810677542    0.0000000000000000
     0.0000000000000000    0.0000000000000000   24.2490502839698614
 Cr  Al  Cr  Al  Cr  Al  H  
   3   1   3   1   3   1   1
Cartesian
  0.0000000000000000  0.0000000000000000  9.9999992923310419
 -1.3010010079321908  2.2533999405338698  9.9999992923310419
  1.3010010079321908  2.2533999405338698  9.9999992923310419
  2.6020021158643747  0.0000000000000000  9.9999992923310419
  2.6020021158643747  1.5022665936892490 12.1245251419849307
  1.3010010079321908  3.7556665342231192 12.1245251419849307
 -1.3010010079321908  3.7556665342231192 12.1245251419849307
  0.0000000000000000  1.5022665936892490 12.1245251419849307
 -0.0000286999979690  3.1027534804277521 14.1484367987589774
  1.3981080010602298  0.6861021514466771 14.1458178989443084
  3.8059556306643154  0.6861105514460827 14.1456984989527577
  2.6016615158884777  2.9958672879917572 14.5049201735317528
  0.0000926999934399  1.4872418947525003 15.0789111329121912
