Os Ag Os Ag Os Ag Os  H 
 1.0000000000000000
     5.9576265783972309    0.0000000000000000    0.0000000000000000
     2.3622158328333067    4.7504036638286546    0.0000000000000000
     0.0000000000000000    0.0000000000000000   24.6028812589303421
 Os  Ag  Os  Ag  Os  Ag  Os  H  
   2   4   2   1   1   1   1   1
Cartesian
  6.5221366832375569  1.2005516469408326  9.9999991612043271
  7.7032445996542105  3.5757534788551602  9.9999991612043271
  3.5433233940389410  1.2005516469408326  9.9999991612043271
  4.7244313104555946  3.5757534788551602  9.9999991612043271
  2.3622156552277973  1.7878767394275801 12.3014406294651710
  3.5433235716444509  4.1630785713419067 12.3014406294651710
  6.5221368608430659  4.1630785713419067 12.3014406294651710
  5.3410289444264123  1.7878767394275801 12.3014406294651710
  0.3651406833202535 -0.1833224525089222 14.9601720281749540
  3.3826361329392514 -0.2911777692253477 14.5245096932843367
  1.5974358625397298  2.1664794033016466 15.0000687247022295
  4.6346020261300174  2.2263178060482205 14.5243797408655269
  3.9868786916192955  0.9778371513573352 15.7057370283620248
