Os Fe Os Fe Os Fe  H 
 1.0000000000000000
     5.3619326205526461    0.0000000000000000    0.0000000000000000
    -2.6809668102762876    4.6435696713889660    0.0000000000000000
     0.0000000000000000    0.0000000000000000   24.3779982748446145
 Os  Fe  Os  Fe  Os  Fe  H  
   3   1   3   1   3   1   1
Cartesian
  0.0000000000000000  0.0000000000000000  9.9999992100910475
 -1.3404834051381438  2.3217848356944830  9.9999992100910475
  1.3404829051381792  2.3217848356944830  9.9999992100910475
  2.6809663102763230  0.0000000000000000  9.9999992100910475
  2.6809661462906345  1.5478565555817989 12.1889991374223072
  1.3404827411524907  3.8696413912762817 12.1889991374223072
 -1.3404835691238324  3.8696413912762817 12.1889991374223072
 -0.0000001639856884  1.5478565555817989 12.1889991374223072
  0.0067193820198261  3.0772984691162044 14.3319857636557852
  1.3279230888780975  0.7888596412424781 14.3320044615804640
  4.0391778739312798  0.7840884012665439 14.2835501915154222
  2.6653263009018078  3.0865789913722006 14.2514689895657085
 -0.6741160507433142  4.2543377906825501 15.5593341164801462
