Cu  H 
 1.0000000000000000
     7.8085065966819247    0.0000000000000000    0.0000000000000000
     1.3014177661136512    6.7623650783449198    0.0000000000000000
     0.0000000000000000    0.0000000000000000   27.7924231468629159
 Cu  H  
  36   1
Cartesian
  2.6028355322273078  0.5009159317292499 10.0000000000000000
  1.3014177661136512  4.7587013514279031 10.7084021042602657
  1.3014177661136521  2.2541216927816370 11.4168042085205315
  2.6028355322273042  6.5119071124802907 12.1252063127807954
  2.6028355322273060  4.0073274538340247 12.8336084170410611
  2.6028355322273073  1.5027477951877550 13.5420105213013251
  1.2938930307664265  5.7588631818569258 14.2537900257456354
  1.3134316233064378  3.2750779227188378 14.9880516903343182
  1.2903800197536017  0.7554542043749697 15.6376064941334185
  2.6148129928220629  4.9982244970529184 16.4313493305415719
  2.6009539314118530  2.5194023864278723 17.1218409111843997
 -0.0187045934691564  0.0061340850145662 17.6735207071170315
  5.2056710644546165  0.5009159317292499 10.0000000000000000
  3.9042532983409597  4.7587013514279031 10.7084021042602657
  3.9042532983409606  2.2541216927816370 11.4168042085205315
  5.2056710644546129  6.5119071124802907 12.1252063127807954
  5.2056710644546147  4.0073274538340247 12.8336084170410611
  5.2056710644546156  1.5027477951877550 13.5420105213013251
  3.8999286398420931  5.7640798556949546 14.2627406603761706
  3.8891946514107514  3.2729953656210302 14.9830844166512414
  3.9070651056719981  0.7600005924951435 15.6412176859283232
  5.1870282189783126  5.0070457960632915 16.4256161768665230
  5.2186046558095560  2.5104998098271625 17.0388655095536450
  2.6007886578420552  0.0753085812052795 17.7072919913669757
  7.8085065966819247  0.5009159317292499 10.0000000000000000
  6.5070888305682679  4.7587013514279031 10.7084021042602657
  6.5070888305682688  2.2541216927816370 11.4168042085205315
  7.8085065966819212  6.5119071124802907 12.1252063127807954
  7.8085065966819229  4.0073274538340247 12.8336084170410611
  7.8085065966819238  1.5027477951877550 13.5420105213013251
  6.5065312257086427  5.7660756445703916 14.2526907674156718
  6.5038463381054115  3.2874748919094392 14.9665353891724493
  6.5028402698510428  0.7644421767931942 15.6564437011352435
  7.8045948297132002  4.9875719152054394 16.4177989266881070
  7.7879038152185185  2.4994287429760331 17.0353523880158022
  5.2211594180638379  0.0147080022732021 17.6728803749785151
  2.6026191466598552  1.5478161480627584 18.4774536554253253
