Cu  H 
 1.0000000000000000
     7.8085065966819247    0.0000000000000000    0.0000000000000000
     1.3014177661136512    6.7623650783449198    0.0000000000000000
     0.0000000000000000    0.0000000000000000   27.7924231468629159
 Cu  H  
  36   1
Cartesian
  2.6028355322273078  0.5009159317292499 10.0000000000000000
  1.3014177661136512  4.7587013514279031 10.7084021042602657
  1.3014177661136521  2.2541216927816370 11.4168042085205315
  2.6028355322273042  6.5119071124802907 12.1252063127807954
  2.6028355322273060  4.0073274538340247 12.8336084170410611
  2.6028355322273073  1.5027477951877550 13.5420105213013251
  1.2948206927293362  5.7743552207165889 14.2599488590369869
  1.3142217909851985  3.2775698755161922 14.9955072980243482
  1.3099885833386185  0.7875144736586345 15.6717880133567604
  2.5908176335237689  5.0111158341992512 16.4077686089574328
  2.6116770536314444  2.5190822007953302 17.1264181942004008
 -0.0031984962381934  0.0321227164612508 17.6838365266243009
  5.2056710644546165  0.5009159317292499 10.0000000000000000
  3.9042532983409597  4.7587013514279031 10.7084021042602657
  3.9042532983409606  2.2541216927816370 11.4168042085205315
  5.2056710644546129  6.5119071124802907 12.1252063127807954
  5.2056710644546147  4.0073274538340247 12.8336084170410611
  5.2056710644546156  1.5027477951877550 13.5420105213013251
  3.8946185438082899  5.7644179800094930 14.2549661202029085
  3.9013263364017154  3.2789300663548024 14.9592404987472953
  3.9010197674095966  0.7507377406552281 15.6452941727339052
  5.2040420556358704  4.9985878265591381 16.4069197970308487
  5.1928243584471980  2.5127653771540226 17.1261617535731858
  2.5956843105322918 -0.0129175647967859 17.6907230238773536
  7.8085065966819247  0.5009159317292499 10.0000000000000000
  6.5070888305682679  4.7587013514279031 10.7084021042602657
  6.5070888305682688  2.2541216927816370 11.4168042085205315
  7.8085065966819212  6.5119071124802907 12.1252063127807954
  7.8085065966819229  4.0073274538340247 12.8336084170410611
  7.8085065966819238  1.5027477951877550 13.5420105213013251
  6.5114773964244597  5.7620132092859029 14.2518914814419304
  6.4882436649935489  3.2725101846399021 14.9936299150251173
  6.4931453765800393  0.7798159803184213 15.6714792092243052
  7.8070720805059235  4.9903094120118769 16.4206740776504283
  7.8049339778800206  2.5114168214615269 17.0457945153298525
  5.2092095976487416 -0.0204650201754884 17.6903368793707401
  3.9020965141831394  2.5235587555288999 18.1810881834718359
