Mn  N  H 
 1.0000000000000000
     6.0279400000000001    0.0000000000000000    0.0000000000000000
     0.0000000000000000    6.0279400000000001    0.0000000000000000
     0.0000000000000000    0.0000000000000000   25.5744000000000007
 Mn  N   H  
  16  16   1
Cartesian
  1.5069900000000001  1.5069900000000001  1.5984000000000000
  0.0000000000000000  0.0000000000000000  3.7295099999999999
  1.5069900000000001  1.5385300000000000  5.8028100000000000
  0.1359500000000000  0.0000000000000000  8.0051900000000007
  1.5069900000000001  4.5209500000000000  1.5984000000000000
  0.0000000000000000  3.0139700000000000  3.7295099999999999
  1.5069900000000001  4.4894100000000003  5.8028100000000000
  0.0178000000000000  3.0139700000000000  7.9783900000000001
  4.5209500000000000  1.5069900000000001  1.5984000000000000
  3.0139700000000000  0.0000000000000000  3.7295099999999999
  4.5209500000000000  1.4406600000000001  5.9377399999999998
  2.8780199999999998  0.0000000000000000  8.0051900000000007
  4.5209500000000000  4.5209500000000000  1.5984000000000000
  3.0139700000000000  3.0139700000000000  3.7295099999999999
  4.5209500000000000  4.5872799999999998  5.9377399999999998
  2.9961700000000002  3.0139700000000000  7.9783900000000001
  0.0000000000000000  1.5069900000000001  0.5327100000000000
  1.5069900000000001  0.0000000000000000  2.6640899999999998
 -0.0090300000000000  1.5131900000000000  4.7857300000000000
  1.5069900000000001  0.0000000000000000  6.7442500000000001
  0.0000000000000000  4.5209500000000000  0.5327100000000000
  1.5069900000000001  3.0139700000000000  2.6640899999999998
 -0.0090300000000000  4.5147500000000003  4.7857300000000000
  1.5069900000000001  3.0139700000000000  6.8872700000000000
  3.0139700000000000  1.5069900000000001  0.5327100000000000
  4.5209500000000000  0.0000000000000000  2.6640899999999998
  3.0230000000000001  1.5131900000000000  4.7857300000000000
  4.5209500000000000  0.0000000000000000  7.1189700000000000
  3.0139700000000000  4.5209500000000000  0.5327100000000000
  4.5209500000000000  3.0139700000000000  2.6640899999999998
  3.0230000000000001  4.5147500000000003  4.7857300000000000
  4.5209500000000000  3.0139700000000000  6.9348299999999998
  1.5069900000000001  0.0000000000000000  9.1562099999999997
