 V Hg  V Hg  V Hg  V  H 
 1.0000000000000000
     5.5705676057881943    0.0000000000000000    0.0000000000000000
     2.7852838028940972    4.8242526586025907    0.0000000000000000
     0.0000000000000000    0.0000000000000000   24.5483482627894745
 V   Hg  V   Hg  V   Hg  V   H  
   1   1   3   1   3   1   2   1
Cartesian
  0.0000000000000000  0.0000000000000000  9.9999993882903357
  1.3926419014470486  2.4121263293012953  9.9999993882903357
  2.7852838028940972  0.0000000000000000  9.9999993882903357
  4.1779257043411455  2.4121263293012953  9.9999993882903357
  5.5705676085734783  3.2161684406764781 12.2741741313947372
  4.1779257071264295  0.8040421113751827 12.2741741313947372
  2.7852838056793807  3.2161684406764781 12.2741741313947372
  1.3926419042323324  0.8040421113751827 12.2741741313947372
  2.6417210926122374  1.6908314687178843 14.3805809946718526
  4.1774234981744973  4.0204370265927185 14.9231980283494252
  5.7134076546904069  1.6908293991134937 14.3809390814279627
  6.9628225978916154  3.8554757351827726 14.3807904657275767
  1.3922922313478656  2.4122183663935162 15.5913076176022312
