Ir Ru Ir Ru Ir Ru Ir Ru Ir Ru Ir  H 
 1.0000000000000000
     5.4450276146722709    0.0000000000000000    0.0000000000000000
     2.7137238079581767    4.7104466666562885    0.0000000000000000
     0.0000000000000000    0.0000000000000000   24.4434312702141234
 Ir  Ru  Ir  Ru  Ir  Ru  Ir  Ru  Ir  Ru  Ir  H  
   1   1   1   2   1   1   1   1   1   1   1   1
Cartesian
  1.3480728388070071  0.7918258868261621  9.9999992958154618
  4.0705866461431421  0.7918258868261621  9.9999992958154618
  2.7049347427860955  3.1470492201543063  9.9999992958154618
  5.4274485501222305  3.1470492201543063  9.9999992958154618
  2.7137242750611152  1.5735246100771532 12.2217156351070617
  5.4362380823972511  1.5735246100771532 12.2217156351070617
  4.0705861790402036  3.9287479434052974 12.2217156351070617
  6.7930999863763395  3.9287479434052974 12.2217156351070617
  0.0280296610229318 -0.0161454186543578 14.3610300877144290
  2.7053424031886464 -0.0092889537221795 14.3922624131422001
  1.3611301264854114  2.3527612723539697 14.3677144128730152
  4.0787944797126521  2.3747366035879947 14.3922658352225792
  3.4085963207839787  1.1732017559156418 15.5653373161418855
