Cu  H 
 1.0000000000000000
     7.8085065966819247    0.0000000000000000    0.0000000000000000
     1.3014177661136512    6.7623650783449198    0.0000000000000000
     0.0000000000000000    0.0000000000000000   27.7924231468629159
 Cu  H  
  36   1
Cartesian
  2.6028355322273078  0.5009159317292499 10.0000000000000000
  1.3014177661136512  4.7587013514279031 10.7084021042602657
  1.3014177661136521  2.2541216927816370 11.4168042085205315
  2.6028355322273042  6.5119071124802907 12.1252063127807954
  2.6028355322273060  4.0073274538340247 12.8336084170410611
  2.6028355322273073  1.5027477951877550 13.5420105213013251
  1.2940589808549194  5.7721406281938750 14.2602409476166816
  1.2926709628223556  3.2852140955890290 14.9662103641549784
  1.3069806178407903  0.7553825226497761 15.6655859503998638
  2.5970308832655582  5.0065994495472994 16.4129382520521716
  2.5983166746172639  2.5227370622375545 17.0306944008092103
 -0.0000981539274911  0.0244337276348797 17.7210387719688285
  5.2056710644546165  0.5009159317292499 10.0000000000000000
  3.9042532983409597  4.7587013514279031 10.7084021042602657
  3.9042532983409606  2.2541216927816370 11.4168042085205315
  5.2056710644546129  6.5119071124802907 12.1252063127807954
  5.2056710644546147  4.0073274538340247 12.8336084170410611
  5.2056710644546156  1.5027477951877550 13.5420105213013251
  3.8997252065690633  5.7679676135068600 14.2709977149896972
  3.8994957992988639  3.2805337738790810 14.9659142644669778
  3.8929747344144094  0.7547162892826431 15.6666268729846401
  5.2001239768032272  5.0025978197650423 16.4126566011331647
  5.2038582462118903  2.5054362734558753 17.0270464625629003
  2.6019837623653488  0.0416358487252561 17.7677356514341049
  7.8085065966819247  0.5009159317292499 10.0000000000000000
  6.5070888305682679  4.7587013514279031 10.7084021042602657
  6.5070888305682688  2.2541216927816370 11.4168042085205315
  7.8085065966819212  6.5119071124802907 12.1252063127807954
  7.8085065966819229  4.0073274538340247 12.8336084170410611
  7.8085065966819238  1.5027477951877550 13.5420105213013251
  6.5059079173011458  5.7728812102024847 14.2603364004427924
  6.5061130102574110  3.2878628927804714 14.9598909331248286
  6.5046277314166616  0.7581437154786211 15.6898439683519140
  7.8027810990470829  5.0046800743711897 16.4302400142604412
  7.8033326489432957  2.5033937509521080 17.0280742599974140
  5.2026516189182335  0.0251443327595502 17.7211956933033896
  2.6030264241934011 -0.0469506826385449 19.2913886136838464
