Cu  H 
 1.0000000000000000
     7.8085065966819247    0.0000000000000000    0.0000000000000000
     3.9042532983409610    6.7623650783449172    0.0000000000000000
     0.0000000000000000    0.0000000000000000   26.3756189383423845
 Cu  H  
  36   1
Cartesian
 -0.0000000000000012  0.0000000000000021 10.0000000000000036
  1.3014177661136537  0.7513738975938804 12.1252063127807972
  2.6041041843235493  1.5035940682599565 14.2366156688177981
 -0.0058995673608270 -0.0088993856035483 16.3921396103282824
  1.3014177661136526  2.2541216927816414 10.0000000000000036
  2.6028355322273073  3.0054955903755198 12.1252063127807972
  3.8998313925724886  3.7595583520347442 14.2416298505986259
  1.3013395465016793  2.2407122375839461 16.4027776494388391
  2.6028355322273060  4.5082433855632802 10.0000000000000036
  3.9042532983409610  5.2596172831571586 12.1252063127807972
  5.2057345485329458  6.0088982055149467 14.2334353861028369
  2.5965387830936151  4.5043864579909805 16.3459925846291654
  2.6028355322273069  0.0000000000000021 10.0000000000000036
  3.9042532983409619  0.7513738975938804 12.1252063127807972
  5.2057199636453966  1.4981239765041594 14.2411331113339816
  2.6087374730663946 -0.0090196398731546 16.3917961174594353
  3.9042532983409606  2.2541216927816414 10.0000000000000036
  5.2056710644546156  3.0054955903755198 12.1252063127807972
  6.5116681891355368  3.7595980890041769 14.2413232405790726
  3.9180188310572461  2.2611116890788434 16.3425239870292138
  5.2056710644546147  4.5082433855632802 10.0000000000000036
  6.5070888305682697  5.2596172831571586 12.1252063127807972
  7.7908254660475906  6.0202363668404173 14.2621286878809030
  5.2058833204748920  4.4891096464355895 16.3416718602546389
  5.2056710644546156  0.0000000000000021 10.0000000000000036
  6.5070888305682697  0.7513738975938804 12.1252063127807972
  7.8071870930678129  1.5037231701637215 14.2366600774668530
  5.2054701299063000 -0.0045603512222188 16.3447706369380761
  6.5070888305682688  2.2541216927816414 10.0000000000000036
  7.8085065966819229  3.0054955903755198 12.1252063127807972
  9.1096444670470440  3.7334731347290377 14.2637697328973889
  6.4933790515935765  2.2613384494394562 16.3421141665841141
  7.8085065966819229  4.5082433855632802 10.0000000000000036
  9.1099243627955779  5.2596172831571586 12.1252063127807972
 10.4288293503838094  6.0204648687981290 14.2625616309520389
  7.8146433466313976  4.5045224048002206 16.3459946025911798
  1.3014052070516013  0.7272407820048225 17.3164039440854047
