 Y Bi  Y Bi  Y Bi  Y  H 
 1.0000000000000000
     6.6823845271083568    0.0000000000000000    0.0000000000000000
     1.9527358618109349    6.3907025477497870    0.0000000000000000
     0.0000000000000000    0.0000000000000000   25.3468452062823211
 Y   Bi  Y   Bi  Y   Bi  Y   H  
   1   2   2   2   2   2   1   1
Cartesian
  0.0000000000000000  0.0000000000000000  9.9999993117765236
  0.9763679309054675  3.1953512738748935  9.9999993117765236
  3.3411922635541784  0.0000000000000000  9.9999993117765236
  4.3175601944596460  3.1953512738748935  9.9999993117765236
  6.6823842981789756  4.9455164995980105 12.6734226031411605
  5.7060163672735076  1.7501652257231171 12.6734226031411605
  3.3411920346247967  4.9455164995980105 12.6734226031411605
  2.3648241037193292  1.7501652257231171 12.6734226031411605
  4.7161496957801265  3.5002532261966475 15.2972687326245698
  3.7211319620868593  0.2957793266860818 15.5226113874132299
  1.3594996022667696  3.4778209527742838 15.5262681767711381
  0.3539578090516158  0.2663842166796786 15.7603071313753134
  0.6621596939279606  0.4718557012628794 17.6927827497019976
