Cu  H 
 1.0000000000000000
     7.8085065966819265    0.0000000000000000    0.0000000000000000
     0.0000000000000000    6.3756189383423880    0.0000000000000000
     0.0000000000000000    0.0000000000000000   27.5137389759387965
 Cu  H  
  33   1
Cartesian
  0.0000000000000031  4.2504126255615962 10.0000000000000000
  1.3014177661136570  0.0000000000000060 10.7513738975938793
  0.0000000000000009  2.1252063127807959 11.5027477951877586
  1.3014177661136566  4.2504126255615908 12.2541216927816361
 -0.0000000000000004  0.0000000000000004 13.0054955903755207
  1.3014177661136566  2.1252063127807990 13.7568694879693965
 -0.0011056895052028  4.2565549728559358 14.4901183512794578
  1.3123154123624159  0.0328049945579383 15.2495667578020999
 -0.0020331107742682  2.1477833058451572 16.0459724407493098
  1.2991050370936601  4.2437172080027823 16.7187693742655092
  0.0087941468555729 -0.0305053347432575 17.4320810086046585
  2.6028355322273118  4.2504126255615962 10.0000000000000000
  3.9042532983409659  0.0000000000000060 10.7513738975938793
  2.6028355322273096  2.1252063127807959 11.5027477951877586
  3.9042532983409650  4.2504126255615908 12.2541216927816361
  2.6028355322273082  0.0000000000000004 13.0054955903755207
  3.9042532983409650  2.1252063127807990 13.7568694879693965
  2.6028218593553953  4.2654675426209909 14.4983864704973726
  3.8935043863391567  0.0327942698804785 15.2492702694332447
  2.6027975248935840  2.1475906782128122 16.0318842332742868
  3.9063956334590144  4.2435722623501047 16.7188551428477616
  2.6027826537579695 -0.0169407033579113 17.4742736215864163
  5.2056710644546209  4.2504126255615962 10.0000000000000000
  6.5070888305682741  0.0000000000000060 10.7513738975938793
  5.2056710644546182  2.1252063127807959 11.5027477951877586
  6.5070888305682741  4.2504126255615908 12.2541216927816361
  5.2056710644546174  0.0000000000000004 13.0054955903755207
  6.5070888305682741  2.1252063127807990 13.7568694879693965
  5.2067518767941783  4.2565981005348741 14.4902394675262141
  6.5068085827635329  0.0375187287482939 15.2691695440452229
  5.2077210290984244  2.1478065028575415 16.0459339684336406
  6.5070169866053149  4.2584965846642104 16.7267384867799507
  5.1957193406171065 -0.0303836705865193 17.4329780918121777
  2.6103789114133003 -0.0282583262731486 18.9971587332351355
