Ga Al Ga Al Ga Al  H 
 1.0000000000000000
     5.9360475799243106    0.0000000000000000    0.0000000000000000
    -2.9680237899621553    5.1407676362038064    0.0000000000000000
     0.0000000000000000    0.0000000000000000   24.8467612416717110
 Ga  Al  Ga  Al  Ga  Al  H  
   3   1   3   1   3   1   1
Cartesian
  0.0000000000000000  0.0000000000000000  9.9999992923310419
  4.4520354849432469  2.5703839181018964  9.9999992923310419
  1.4840117949810845  2.5703839181018964  9.9999992923310419
  2.9680236899621617  0.0000000000000000  9.9999992923310419
  2.9680236899621617  1.7135892787345977 12.4233804208358709
  1.4840117949810845  4.2839730968365011 12.4233804208358709
 -1.4840117949810845  4.2839730968365011 12.4233804208358709
  0.0000000000000000  1.7135892787345977 12.4233804208358709
  0.0002086999852309  3.1745894753441415 15.1272875294887434
  1.5306658916795188  0.7665285457551505 14.8406861497706348
  4.4052398882548252  0.7661515457818296 14.8428617496166755
  2.9681833899508607  3.3795137608422849 14.6685242619539995
  0.0002574999817775  3.4030322591779538 16.7130613172684477
