Os Co Os Co Os Co Os Co Os  H 
 1.0000000000000000
     5.2074756314830886    0.0000000000000000    0.0000000000000000
     2.5737918178607297    4.5269636796408106    0.0000000000000000
     0.0000000000000000    0.0000000000000000   24.2597762832108188
 Os  Co  Os  Co  Os  Co  Os  Co  Os  H  
   1   1   1   2   2   1   1   2   1   1
Cartesian
  3.8606882691477082  0.7312650653278338  9.9999991177790371
  1.2569504534061640  0.7312650653278338  9.9999991177790371
  2.5438463623365291  2.9947469051482392  9.9999991177790371
  5.1475841780780733  2.9947469051482392  9.9999991177790371
  2.5737920929296703  1.4973734548376012 12.1298881416054094
  5.1775299086712145  1.4973734548376012 12.1298881416054094
  3.8606880018600354  3.7608552946580067 12.1298881416054094
  6.4644258176015796  3.7608552946580067 12.1298881416054094
  2.5779778634693686 -0.0149863186020127 14.2131156448711149
  3.8602982484460329  2.2423385201457324 14.1874180159073742
 -0.0333708798465623 -0.0158945497441680 14.1874437070104591
  6.4583209154250962  2.2425150898370934 14.2050059655562819
  3.2194189052018896  3.3877590370109285 15.2113987432269866
