Sn  W Sn  W Sn  W Sn  W Sn  W  H 
 1.0000000000000000
     5.7801295909581425    0.0000000000000000    0.0000000000000000
     1.9267088636527849    5.4495586143516261    0.0000000000000000
     0.0000000000000000    0.0000000000000000   24.7194542506808332
 Sn  W   Sn  W   Sn  W   Sn  W   Sn  W   H  
   1   2   1   1   1   1   1   1   2   1   1
Cartesian
  3.8534178169540265  2.7247783099065868  9.9999993460419816
  6.7434826124330973  2.7247783099065868  9.9999993460419816
  4.8167722487804188  5.4495576170823998  9.9999993460419816
  7.7068370442594896  5.4495576170823998  9.9999993460419816
  4.8167737001026660  1.3623891522285139 12.3597271253404166
  1.9267089046235939  1.3623891522285139 12.3597271253404166
  2.8900633364499866  4.0871684594043272 12.3597271253404166
  5.7801281319290583  4.0871684594043272 12.3597271253404166
  2.6869416000736743  0.2873114439808536 14.6544661740021898
  4.0798389641040984  2.8849069140800063 14.9305499966194084
 -0.2264506662730242 -0.1601224407226271 14.9305759273269203
  6.9465725894354904  2.4374573019503649 14.6544318633996919
  1.9266870518777783  1.3624030050065117 16.0268231606816975
