Re Nb Re Nb Re Nb  H 
 1.0000000000000000
     5.6346206012553628    0.0000000000000000    0.0000000000000000
    -2.8173098006277169    4.8797246546770090    0.0000000000000000
     0.0000000000000000    0.0000000000000000   24.6006462590885064
 Re  Nb  Re  Nb  Re  Nb  H  
   3   1   3   1   3   1   1
Cartesian
  0.0000000000000000  0.0000000000000000  9.9999991100218537
 -1.4086549003138584  2.4398623273385045  9.9999991100218537
  1.4086554003138230  2.4398623273385045  9.9999991100218537
  2.8173103006276814  0.0000000000000000  9.9999991100218537
  2.8173104701116465  1.6265748832657614 12.3003231295442532
  1.4086555697977881  4.0664372106042661 12.3003231295442532
 -1.4086547308298933  4.0664372106042661 12.3003231295442532
  0.0000001694839649  1.6265748832657614 12.3003231295442532
  0.0195581013588046  3.1148777472045803 14.6198189985112226
  1.3872204463911002  0.8383637781453436 14.4841425228895950
  4.1046370406494255  0.5655561300203704 14.4450099304762141
  2.9114647139108554  3.2054918624957498 14.6152235239880870
 -1.1886487904675720  3.0333765128262948 15.9150164061529811
