Ga  W Ga  W Ga  W Ga  H 
 1.0000000000000000
     5.4745676125818168    0.0000000000000000    0.0000000000000000
    -2.7372838062909084    4.9967366463964336    0.0000000000000000
     0.0000000000000000    0.0000000000000000   24.5800212605480759
 Ga  W   Ga  W   Ga  W   Ga  H  
   1   2   2   2   2   2   1   1
Cartesian
  0.0000000000000000  0.0000000000000000  9.9999991109831061
 -1.3686419031454542  2.4983683231982168  9.9999991109831061
  1.3686419031454542  2.4983683231982168  9.9999991109831061
  2.7372838062909084  0.0000000000000000  9.9999991109831061
  2.7372838062909080  1.4995229261085339 12.2900106302740380
  1.3686419031454538  3.9978912493067509 12.2900106302740380
 -1.3686419031454542  3.9978912493067509 12.2900106302740380
  0.0000000000000000  1.4995229261085339 12.2900106302740380
 -0.0021611567344457  3.0082239480304285 14.7962619370020896
  1.3420352472436288  0.4113631299829522 14.5223235729984488
  4.1146645837928801  0.4116038577643656 14.5221017874666121
  2.7342075044106409  2.8801238098435582 14.7342221108205944
 -0.0072677375985287  0.4496088668078110 15.8617114713652079
