Re Co Re Co Re Co  H 
 1.0000000000000000
     5.3936986183046649    0.0000000000000000    0.0000000000000000
    -2.6968498091522970    4.6710806694420981    0.0000000000000000
     0.0000000000000000    0.0000000000000000   24.4039352730091323
 Re  Co  Re  Co  Re  Co  H  
   3   1   3   1   3   1   1
Cartesian
  0.0000000000000000  0.0000000000000000  9.9999993122202540
 -1.3484249045761485  2.3355403347210490  9.9999993122202540
  1.3484244045761840  2.3355403347210490  9.9999993122202540
  2.6968493091523325  0.0000000000000000  9.9999993122202540
  2.6968491451825267  1.5570268882570057 12.2019676365045662
  1.3484242406063784  3.8925672229780548 12.2019676365045662
 -1.3484250685459540  3.8925672229780548 12.2019676365045662
 -0.0000001639698055  1.5570268882570057 12.2019676365045662
  0.0029440638609477  3.1262610012344658 14.3453497018222542
  1.3605363565143798  0.7747929493951553 14.3453766437667962
  4.0667741757855049  0.7908223839660748 14.3023475762855554
  2.6759151886747334  3.1018418480153231 14.2665741892239453
 -0.6444702881866939  4.2988707818549861 15.6500263979410850
