Mn Re Mn Re Mn Re Mn Re Mn  H 
 1.0000000000000000
     5.2866906258772888    0.0000000000000000    0.0000000000000000
     2.5926428165267028    4.6073096739549735    0.0000000000000000
     0.0000000000000000    0.0000000000000000   24.3296322782673258
 Mn  Re  Mn  Re  Mn  Re  Mn  Re  Mn  H  
   1   2   2   1   1   1   1   2   1   1
Cartesian
  3.8889636944806059  0.7283547093526045  9.9999991068948777
  5.1852851027439577  3.0320095463300913  9.9999991068948777
  1.2456183815419615  0.7283547093526045  9.9999991068948777
  2.5419397898053129  3.0320095463300913  9.9999991068948777
  5.2359878682502901  1.5160047754687005 12.1648161391336629
  6.5323092765136410  3.8196596124461872 12.1648161391336629
  3.8889639635749966  3.8196596124461872 12.1648161391336629
  2.5926425553116452  1.5160047754687005 12.1648161391336629
  5.2127951945816262  4.5937452290415468 14.3415475626065430
  3.9180823438246244  2.3121101993349868 14.2799334987507986
 -0.0032051227679074 -0.0229541328143272 14.2799275136612582
  6.5928414853954589  2.3094066622694780 14.3388040802819479
  4.6352992429623496  1.1647639746324934 15.5709641714984439
