Re Cu Re Cu Re Cu  H 
 1.0000000000000000
     5.4423746148600154    0.0000000000000000    0.0000000000000000
    -2.7211878074299727    4.7132346664589901    0.0000000000000000
     0.0000000000000000    0.0000000000000000   24.4436792701965757
 Re  Cu  Re  Cu  Re  Cu  H  
   3   1   3   1   3   1   1
Cartesian
  0.0000000000000000  0.0000000000000000  9.9999993132828884
 -1.3605939037149863  2.3566173332294951  9.9999993132828884
  1.3605934037150214  2.3566173332294951  9.9999993132828884
 -0.0000004999999650  4.7132346664589901  9.9999993132828884
  2.7211871434845403  1.5710782205819185 12.2218396350982879
  1.3605932397695537  3.9276955538114136 12.2218396350982879
 -1.3605940676604540  3.9276955538114136 12.2218396350982879
 -0.0000001639454675  1.5710782205819185 12.2218396350982879
 -0.0321015019878834  3.1637020413681518 14.3804695067370911
  1.3632146030441485  0.7469257773926326 14.3804696289554865
  4.0525483943386496  0.7686278051422925 14.3369318429544155
  2.6749227599088821  3.1154033293735917 14.4495359536001260
 -0.6510048076989903  4.3373555733601732 15.6839482587637402
