Re Rh Re Rh Re Rh  H 
 1.0000000000000000
     5.5010576107072016    0.0000000000000000    0.0000000000000000
    -2.7505288053536008    4.7640556628625452    0.0000000000000000
     0.0000000000000000    0.0000000000000000   24.4915932668058502
 Re  Rh  Re  Rh  Re  Rh  H  
   3   1   3   1   3   1   1
Cartesian
  0.0000000000000000  0.0000000000000000  9.9999993572499335
 -1.3752644026768004  2.3820278314312726  9.9999993572499335
  1.3752644026768004  2.3820278314312726  9.9999993572499335
  2.7505288053536008  0.0000000000000000  9.9999993572499335
  2.7505288081041295  1.5880185526994965 12.2457966334029251
  1.3752644054273291  3.9700463841307694 12.2457966334029251
 -1.3752643999262717  3.9700463841307694 12.2457966334029251
  0.0000000027505287  1.5880185526994965 12.2457966334029251
  0.0354880460357478  3.1975289086315808 14.4237275821556317
  1.4191813809743918  0.7639549239189897 14.3752095644529376
  4.0642694099680687  0.7373270208606039 14.3779849518019311
  2.7467792129723936  3.1672765977778909 14.4686174397233760
 -1.3599637857931386  3.1641489428306091 15.6210225574581916
