Re Ru Re Ru Re Ru  H 
 1.0000000000000000
     5.5043256104759353    0.0000000000000000    0.0000000000000000
    -2.7521628052379676    4.7668856626622755    0.0000000000000000
     0.0000000000000000    0.0000000000000000   24.4942612666170447
 Re  Ru  Re  Ru  Re  Ru  H  
   3   1   3   1   3   1   1
Cartesian
  0.0000000000000000  0.0000000000000000  9.9999991812512299
 -1.3760814026189838  2.3834428313311378  9.9999991812512299
  1.3760814026189838  2.3834428313311378  9.9999991812512299
  0.0000000000000000  4.7668856626622755  9.9999991812512299
  2.7521628079901301  1.5889618859651300 12.2471306333085224
  1.3760814053711465  3.9724047172962678 12.2471306333085224
 -1.3760813998668211  3.9724047172962678 12.2471306333085224
  0.0000000027521627  1.5889618859651300 12.2471306333085224
 -0.0217630466333048  3.2198795732928098 14.4149545907310230
  1.4042903833319718  0.7781972496416965 14.3642938204868535
  4.0810253973942512  0.7923487841454983 14.4149545662367622
  2.7260420693358958  3.1930019985406548 14.4224601467626012
 -0.6969269396183003  1.9913307053333817 15.6483159653585844
