 W Pt  W Pt  W Pt  H 
 1.0000000000000000
     5.6482866002882623    0.0000000000000000    0.0000000000000000
    -2.8241428001441666    4.8915596538394830    0.0000000000000000
     0.0000000000000000    0.0000000000000000   24.6118052582988192
 W   Pt  W   Pt  W   Pt  H  
   3   1   3   1   3   1   1
Cartesian
  0.0000000000000000  0.0000000000000000  9.9999994347906451
 -1.4120714000720833  2.4457798269197415  9.9999994347906451
  1.4120719000720479  2.4457798269197415  9.9999994347906451
  0.0000004999999645  4.8915596538394830  9.9999994347906451
  2.8241434696349290  1.6305198829826411 12.3059026291494096
  1.4120720695628459  4.0762997099023828 12.3059026291494096
 -1.4120712305812853  4.0762997099023828 12.3059026291494096
  0.0000001694907978  1.6305198829826411 12.3059026291494096
 -0.0010550837814260  3.3077496115089708 14.5176558236730777
  1.4567618950203283  0.7894593000370519 14.5169372327949500
  4.1952406488253846  0.7928095488102053 14.5176570296515361
  2.8228133547435581  3.2618021644529298 14.6043490864218448
  0.0011956038624447  1.6298349227758737 15.5944909460485164
