 W Mn  W Mn  W Mn  H 
 1.0000000000000000
     5.5918956042788786    0.0000000000000000    0.0000000000000000
    -2.7959478021394393    4.8427236572954548    0.0000000000000000
     0.0000000000000000    0.0000000000000000   24.5657622615571398
 W   Mn  W   Mn  W   Mn  H  
   3   1   3   1   3   1   1
Cartesian
  0.0000000000000000  0.0000000000000000  9.9999992884802751
 -1.3979739010697196  2.4213618286477274  9.9999992884802751
  1.3979739010697196  2.4213618286477274  9.9999992884802751
  0.0000000000000000  4.8427236572954548  9.9999992884802751
  2.7959478049353867  1.6142412174842438 12.2828811307785699
  1.3979739038656671  4.0356030461319712 12.2828811307785699
 -1.3979738982737722  4.0356030461319712 12.2828811307785699
  0.0000000027959477  1.6142412174842438 12.2828811307785699
 -0.1988344290779240  3.3884093691327579 14.5158922156357768
  1.1905923294593506  0.9268555056157403 14.4728324877420391
  3.9560067347861718  0.8993583608797361 14.5158926823852603
  2.6033391379920179  3.3396881792338053 14.7431006314380078
 -0.2292191961013278  1.7465845255534380 15.6281963985735945
