Hg Mo Hg Mo Hg Mo Hg Mo Hg  H 
 1.0000000000000000
     6.0621445710008164    0.0000000000000000    0.0000000000000000
     2.6614318116587192    5.0184406448605090    0.0000000000000000
     0.0000000000000000    0.0000000000000000   24.8158672438579835
 Hg  Mo  Hg  Mo  Hg  Mo  Hg  Mo  Hg  H  
   1   1   1   2   1   1   2   2   1   1
Cartesian
  0.9610754084829569  1.0977822098856205  9.9999993244406724
  3.9921476939833651  1.0977822098856205  9.9999993244406724
  2.2917913143123165  3.6070025323158750  9.9999993244406724
  5.3228635998127247  3.6070025323158750  9.9999993244406724
  2.6614318042681506  1.8035012686671577 12.4079336219289917
  5.6925040897685584  1.8035012686671577 12.4079336219289917
  3.9921477100975098  4.3127215910974117 12.4079336219289917
  7.0232199955979180  4.3127215910974117 12.4079336219289917
  3.2772205463650708 -0.1444257233922032 15.1925487872354505
  0.2762716267065292 -0.1463712373323182 14.6761600463251831
  1.6774034852997830  2.3250144036606084 14.5319078419916288
  4.6189950323940057  2.3867785356985873 15.1925719156237218
  6.6514720092535438 -0.3126908364492446 16.4479829155214112
