Mo Sn Mo Sn Mo Sn  H 
 1.0000000000000000
     5.7756475912753205    0.0000000000000000    0.0000000000000000
    -2.8878237956376602    5.0018576460340363    0.0000000000000000
     0.0000000000000000    0.0000000000000000   24.7157952509397667
 Mo  Sn  Mo  Sn  Mo  Sn  H  
   3   1   3   1   3   1   1
Cartesian
  0.0000000000000000  0.0000000000000000  9.9999993151170283
 -1.4439118978188301  2.5009288230170181  9.9999993151170283
  1.4439118978188301  2.5009288230170181  9.9999993151170283
  2.8878237956376602  0.0000000000000000  9.9999993151170283
  2.8878237985254840  1.6672858803440596 12.3578976254698834
  1.4439119007066537  4.1682147033610777 12.3578976254698834
 -1.4439118949310066  4.1682147033610777 12.3578976254698834
  0.0000000028878238  1.6672858803440596 12.3578976254698834
 -0.0028464037389369  3.4559159418521013 14.5994502842061795
  1.5475846796718606  0.7703910264663707 14.5994453657629233
  4.2226409791097934  0.7705550023655806 14.5979504556029678
  2.8816120086820014  3.3309705882442771 14.9896854791279477
  0.0003038828101918  5.0020343566628123 15.8006668261665002
