 W  Y  W  Y  W  Y  H 
 1.0000000000000000
     5.9827615766185049    0.0000000000000000    0.0000000000000000
    -2.9913807883092525    5.1812236333408617    0.0000000000000000
     0.0000000000000000    0.0000000000000000   24.8849032389725195
 W   Y   W   Y   W   Y   H  
   3   1   3   1   3   1   1
Cartesian
  0.0000000000000000  0.0000000000000000  9.9999992873225274
 -1.4956903941546262  2.5906118166704308  9.9999992873225274
  1.4956903941546262  2.5906118166704308  9.9999992873225274
  2.9913807883092525  0.0000000000000000  9.9999992873225274
  2.9913807913006334  1.7270745427198795 12.4424516194862598
  1.4956903971460069  4.3176863593903105 12.4424516194862598
 -1.4956903911632455  4.3176863593903105 12.4424516194862598
  0.0000000029913807  1.7270745427198795 12.4424516194862598
 -0.0060943670024494  3.5536213306680398 14.6404257285500634
  1.5787726571689560  0.8086596961850676 14.6405177031524367
  4.2170642257069275  0.7077459309175179 14.5244485918388975
  2.9034711516425995  3.4034842984358606 15.5031140037125574
 -1.1549952995845503  4.5144612176316352 15.8568237879177616
