Mo Ag Mo Ag Mo Ag  H 
 1.0000000000000000
     5.6708685986902045    0.0000000000000000    0.0000000000000000
    -2.8354347993450668    4.9111166524554948    0.0000000000000000
     0.0000000000000000    0.0000000000000000   24.6302432569940173
 Mo  Ag  Mo  Ag  Mo  Ag  H  
   3   1   3   1   3   1   1
Cartesian
  0.0000000000000000  0.0000000000000000  9.9999992923310419
 -1.4177171996725477  2.4555582262277547  9.9999992923310419
  1.4177171996725477  2.4555582262277547  9.9999992923310419
  2.8354343993450954  0.0000000000000000  9.9999992923310419
  2.8354343993450954  1.6370387841518388 12.3151218284969950
  1.4177171996725477  4.0925971103795860 12.3151218284969950
 -1.4177171996725477  4.0925971103795860 12.3151218284969950
  0.0000000000000000  1.6370387841518388 12.3151218284969950
  0.0000350999975161  3.4485147559592986 14.5128800729684553
  1.5685654889974816  0.7315837482280855 14.5126531729845123
  4.1022582096958997  0.7313878482419487 14.5125655729907113
  2.8356973993264836  3.2745054682733965 14.8726255475103830
  2.8356525993296540  3.2739239683145476 16.5234888306839025
