Mo Ni Mo Ni Mo Ni  H 
 1.0000000000000000
     5.4890396115576783    0.0000000000000000    0.0000000000000000
    -2.7445198057788391    4.7536476635990876    0.0000000000000000
     0.0000000000000000    0.0000000000000000   24.4817802675002838
 Mo  Ni  Mo  Ni  Mo  Ni  H  
   3   1   3   1   3   1   1
Cartesian
  0.0000000000000000  0.0000000000000000  9.9999992181161375
 -1.3722599028894196  2.3768238317995438  9.9999992181161375
  1.3722599028894196  2.3768238317995438  9.9999992181161375
  2.7445198057788391  0.0000000000000000  9.9999992181161375
  2.7445198085233589  1.5845492196151467 12.2408901337501419
  1.3722599056339395  3.9613730514146903 12.2408901337501419
 -1.3722599001448996  3.9613730514146903 12.2408901337501419
  0.0000000027445197  1.5845492196151467 12.2408901337501419
 -0.0004461683512660  3.1895441868185310 14.4090378705214981
  1.3983395678623622  0.7772191445231059 14.4123516018896058
  4.0988564162376342  0.7824434983783547 14.4090440644119049
  2.7361805356921436  3.1739212857429315 14.4241407297320787
  0.0026121214258282  1.5830476944349410 15.5698251035940238
