Os  W Os  W Os  W Os  W Os  W Os  W  H 
 1.0000000000000000
     5.5555456068512550    0.0000000000000000    0.0000000000000000
     2.7320658066601702    4.8373446576761108    0.0000000000000000
     0.0000000000000000    0.0000000000000000   24.5479582628170725
 Os  W   Os  W   Os  W   Os  W   Os  W   Os  W   H  
   1   1   1   1   1   1   1   1   1   1   1   1   1
Cartesian
  4.0980992782014543  0.7706531955314119  9.9999994661817091
  1.3203264747758272  0.7706531955314119  9.9999994661817091
  2.6863593781059123  3.1893255243694671  9.9999994661817091
  5.4641321815315393  3.1893255243694671  9.9999994661817091
  5.5098388941913976  1.5946627621847336 12.2739791314085362
  2.7320660907657697  1.5946627621847336 12.2739791314085362
  4.0980989940958548  4.0133350910227890 12.2739791314085362
  6.8758717975214827  4.0133350910227890 12.2739791314085362
  5.5298952476329166  4.8490488404305570 14.4429599865935234
 -0.0200899347741616 -0.0203207948354803 14.4697180957305740
  1.3164883018432849  2.3897516736460904 14.4563606679132768
  4.1162314452938533  2.4111713438807318 14.4697180711826174
  3.4394194852093563  3.6288750890404717 15.7619868852399989
