 W Ni  W Ni  W Ni  H 
 1.0000000000000000
     5.5270646088667679    0.0000000000000000    0.0000000000000000
    -2.7635318044334189    4.7865776612687343    0.0000000000000000
     0.0000000000000000    0.0000000000000000   24.5128272653031836
 W   Ni  W   Ni  W   Ni  H  
   3   1   3   1   3   1   1
Cartesian
  0.0000000000000000  0.0000000000000000  9.9999991318010988
 -1.3817659022167095  2.3932888306343671  9.9999991318010988
  1.3817664022166745  2.3932888306343671  9.9999991318010988
  0.0000004999999650  4.7865776612687343  9.9999991318010988
  2.7635324738635711  1.5955258854940522 12.2564136326515918
  1.3817665716468617  3.9888147161284193 12.2564136326515918
 -1.3817657327865223  3.9888147161284193 12.2564136326515918
  0.0000001694301871  1.5955258854940522 12.2564136326515918
 -0.0010735151072925  3.2119090198853115 14.4503737884005155
  1.3977294887729472  0.7885464855850952 14.4556973861746858
  4.1266993116250168  0.7882626032371607 14.4503745973238171
  2.7598455525330357  3.1931788447289517 14.4686928615493873
 -0.0044252238124414  1.5980838804620108 15.6176788634933708
