Os  W Os  W Os  W Os  W Os  W Os  W  H 
 1.0000000000000000
     5.5555456068512550    0.0000000000000000    0.0000000000000000
     2.7320658066601702    4.8373446576761108    0.0000000000000000
     0.0000000000000000    0.0000000000000000   24.5479582628170725
 Os  W   Os  W   Os  W   Os  W   Os  W   Os  W   H  
   1   1   1   1   1   1   1   1   1   1   1   1   1
Cartesian
  4.0980992782014543  0.7706531955314119  9.9999994661817091
  1.3203264747758272  0.7706531955314119  9.9999994661817091
  2.6863593781059123  3.1893255243694671  9.9999994661817091
  5.4641321815315393  3.1893255243694671  9.9999994661817091
  5.5098388941913976  1.5946627621847336 12.2739791314085362
  2.7320660907657697  1.5946627621847336 12.2739791314085362
  4.0980989940958548  4.0133350910227890 12.2739791314085362
  6.8758717975214827  4.0133350910227890 12.2739791314085362
  5.5158090923207528  4.7822381449317426 14.4994281213966882
 -0.0046631013235428 -0.0027221334712481 14.4345238598048820
  1.3209655810203838  2.4509583634071226 14.4994013641221837
  4.1239414008897359  2.4070858773778876 14.4285193555699216
  2.0730281759325351  1.2100011977252203 15.6068468575137782
