 W Os  W Os  W Os  H 
 1.0000000000000000
     5.5555456068512550    0.0000000000000000    0.0000000000000000
     2.7320658066601702    4.8373446576761108    0.0000000000000000
     0.0000000000000000    0.0000000000000000   24.5479582628170725
 W   Os  W   Os  W   Os  H  
   2   2   2   2   2   2   1
Cartesian
  0.0000000000000000  0.0000000000000000  9.9999992923310419
  4.1438058067557053  2.4186721288380695  9.9999992923310419
  2.7777727034256348  0.0000000000000000  9.9999992923310419
  1.3660331033300708  2.4186721288380695  9.9999992923310419
  5.5555455068512627  3.2426816705254677 12.2739789314085499
  1.4117397000955567  0.8240095416873985 12.2739789314085499
  2.7777727034256348  3.2426816705254677 12.2739789314085499
  4.1895124035211913  0.8240095416873985 12.2739789314085499
  2.8225528002566862  1.6476052834040804 14.5597887696488737
  6.9985525047341293  4.0848162109302164 14.4273293790226145
  5.6042053034077588  1.6496510832593054 14.4514756773138551
  4.1923841033179698  4.0684679120871348 14.4513937773196499
  2.8180055005784843  1.6448312836003878 16.3260670446548346
