Os  W Os  W Os  W Os  W Os  W Os  W  H 
 1.0000000000000000
     5.5555456068512550    0.0000000000000000    0.0000000000000000
     2.7320658066601702    4.8373446576761108    0.0000000000000000
     0.0000000000000000    0.0000000000000000   24.5479582628170725
 Os  W   Os  W   Os  W   Os  W   Os  W   Os  W   H  
   1   1   1   1   1   1   1   1   1   1   1   1   1
Cartesian
  4.0980992782014543  0.7706531955314119  9.9999994661817091
  1.3203264747758272  0.7706531955314119  9.9999994661817091
  2.6863593781059123  3.1893255243694671  9.9999994661817091
  5.4641321815315393  3.1893255243694671  9.9999994661817091
  5.5098388941913976  1.5946627621847336 12.2739791314085362
  2.7320660907657697  1.5946627621847336 12.2739791314085362
  4.0980989940958548  4.0133350910227890 12.2739791314085362
  6.8758717975214827  4.0133350910227890 12.2739791314085362
  5.5359369350764087  4.8569965396549835 14.4876514102558094
 -0.0438488792671287 -0.0018647866908448 14.4370204853520434
  1.3372656553354141  2.4035939288778172 14.4678120204153409
  4.1239622168298089  2.3843349602187645 14.4376570384577576
  1.4557253574767737 -0.7651913787024976 15.5299541586410754
