 W Os  W Os  W Os  H 
 1.0000000000000000
     5.6426956006839202    0.0000000000000000    0.0000000000000000
    -2.8213478003419601    4.8867176541821369    0.0000000000000000
     0.0000000000000000    0.0000000000000000   24.6072402586218679
 W   Os  W   Os  W   Os  H  
   3   1   3   1   3   1   1
Cartesian
  0.0000000000000000  0.0000000000000000  9.9999992923310419
 -1.4106738001709871  2.4433587270910753  9.9999992923310419
  1.4106738001709871  2.4433587270910753  9.9999992923310419
  2.8213476003419742  0.0000000000000000  9.9999992923310419
  2.8213476003419742  1.6289057847273858 12.3036199293109476
  1.4106738001709871  4.0722645118184611 12.3036199293109476
 -1.4106738001709871  4.0722645118184611 12.3036199293109476
  0.0000000000000000  1.6289057847273858 12.3036199293109476
 -0.0000295999979053  3.2504435699761824 14.5028872736756149
  1.4045449006047104  0.8182412420956031 14.5027049736885161
  4.2381964000759753  0.8182161420973794 14.5026716736908714
  2.8213980003384074  3.2576495694662357 14.6603789625304159
  2.8213577003412595  3.2578021694554371 16.3300011443764284
