Os  W Os  W Os  W Os  W Os  W Os  W  H 
 1.0000000000000000
     5.5555456068512550    0.0000000000000000    0.0000000000000000
     2.7320658066601702    4.8373446576761108    0.0000000000000000
     0.0000000000000000    0.0000000000000000   24.5479582628170725
 Os  W   Os  W   Os  W   Os  W   Os  W   Os  W   H  
   1   1   1   1   1   1   1   1   1   1   1   1   1
Cartesian
  4.0980992782014543  0.7706531955314119  9.9999994661817091
  1.3203264747758272  0.7706531955314119  9.9999994661817091
  2.6863593781059123  3.1893255243694671  9.9999994661817091
  5.4641321815315393  3.1893255243694671  9.9999994661817091
  5.5098388941913976  1.5946627621847336 12.2739791314085362
  2.7320660907657697  1.5946627621847336 12.2739791314085362
  4.0980989940958548  4.0133350910227890 12.2739791314085362
  6.8758717975214827  4.0133350910227890 12.2739791314085362
  5.4760960254511843  4.8135430402332720 14.4836588812280276
  0.0192114164766396 -0.0074560702121770 14.4434297854187577
  1.3616883755903060  2.4153552648593939 14.4488988250401302
  4.1447774516380909  2.4417935060319662 14.4463478503133764
  4.0634270960382937  0.7419463993467629 15.5415715289848677
