Re Pt Re Pt Re Pt  H 
 1.0000000000000000
     5.5351666082934141    0.0000000000000000    0.0000000000000000
    -2.7675838041466712    4.7935946607721620    0.0000000000000000
     0.0000000000000000    0.0000000000000000   24.5194432648349903
 Re  Pt  Re  Pt  Re  Pt  H  
   3   1   3   1   3   1   1
Cartesian
  0.0000000000000000  0.0000000000000000  9.9999992222891425
 -1.3837919020733356  2.3967973303860810  9.9999992222891425
  1.3837914020733715  2.3967973303860810  9.9999992222891425
 -0.0000004999999641  4.7935946607721620  9.9999992222891425
  2.7675831402476359  1.5978648853261892 12.2597216324174951
  1.3837912381743003  3.9946622157122702 12.2597216324174951
 -1.3837920659724070  3.9946622157122702 12.2597216324174951
 -0.0000001638990713  1.5978648853261892 12.2597216324174951
 -0.0010183941852868  3.3264635460169689 14.4352094812844118
  1.4987151790038498  0.7325606929064401 14.4381198166027325
  4.0376447550618639  0.7344123003352726 14.4352211035005205
  2.7664542893906834  3.1963476745913408 14.4778710077375568
  0.0001911646775451  1.5977916967229084 15.4219681170761849
