Tc Sn Tc Sn Tc Sn  H 
 1.0000000000000000
     5.6613365993647538    0.0000000000000000    0.0000000000000000
    -2.8306677996824128    4.9028606530397463    0.0000000000000000
     0.0000000000000000    0.0000000000000000   24.6224602575447946
 Tc  Sn  Tc  Sn  Tc  Sn  H  
   3   1   3   1   3   1   1
Cartesian
  0.0000000000000000  0.0000000000000000  9.9999992923310419
 -1.4153340998411921  2.4514305265198590  9.9999992923310419
  1.4153340998411921  2.4514305265198590  9.9999992923310419
  2.8306681996823841  0.0000000000000000  9.9999992923310419
  2.8306681996823841  1.6342869843465753 12.3112301287723973
  1.4153340998411921  4.0857176108664266 12.3112301287723973
 -1.4153340998411921  4.0857176108664266 12.3112301287723973
  0.0000000000000000  1.6342869843465753 12.3112301287723973
  0.0008432999403223  3.0805134820016082 14.6688176619332342
  1.6414856838371457  0.7812629447124427 14.5018080737519863
  4.0168133157425707  0.7794717448392005 14.5006274738355341
  2.8319068995947254  3.3669072617344078 14.9328667432473008
  0.0006207999560679  3.1599182763823768 16.3323719442086563
