Ru Cu Ru Cu Ru Cu  H 
 1.0000000000000000
     5.3672886201736194    0.0000000000000000    0.0000000000000000
    -2.6836438100868447    4.6482076710607494    0.0000000000000000
     0.0000000000000000    0.0000000000000000   24.3823712745351528
 Ru  Cu  Ru  Cu  Ru  Cu  H  
   3   1   3   1   3   1   1
Cartesian
  0.0000000000000000  0.0000000000000000  9.9999993756918251
 -1.3418219050434224  2.3241038355303747  9.9999993756918251
  1.3418224050433873  2.3241038355303747  9.9999993756918251
  2.6836443100868097  0.0000000000000000  9.9999993756918251
  2.6836444794371088  1.5494025554708473 12.1911856372675764
  1.3418225743936865  3.8735063910012220 12.1911856372675764
 -1.3418217356931232  3.8735063910012220 12.1911856372675764
  0.0000001693502991  1.5494025554708473 12.1911856372675764
 -0.1213652690787037  3.1504563664391352 14.3268193235727672
  1.2722783098118842  0.8298656788040020 14.3116812113961469
  3.9948345860552243  0.8910291147954471 14.2837869008927125
  2.5884730739787698  3.1813984483550759 14.3868842467656215
 -0.6172510800470199  4.4234356313950736 15.5024294963498210
