Os Ir Os Ir Os Ir  H 
 1.0000000000000000
     5.4627406134187773    0.0000000000000000    0.0000000000000000
    -2.7313708067093532    4.7308726652108035    0.0000000000000000
     0.0000000000000000    0.0000000000000000   24.4603082690197908
 Os  Ir  Os  Ir  Os  Ir  H  
   3   1   3   1   3   1   1
Cartesian
  0.0000000000000000  0.0000000000000000  9.9999994215371117
 -1.3656854033546766  2.3654363326054018  9.9999994215371117
  1.3656849033547120  2.3654363326054018  9.9999994215371117
  2.7313703067093886  0.0000000000000000  9.9999994215371117
  2.7313701427741042  1.5769575534933102 12.2301541345098954
  1.3656847394194278  3.9423938860987122 12.2301541345098954
 -1.3656855672899608  3.9423938860987122 12.2301541345098954
 -0.0000001639352845  1.5769575534933102 12.2301541345098954
 -0.0019259408040990  3.2276484256861142 14.4082226023087703
  1.4198213981973511  0.7572233132130979 14.3628835619487134
  4.0322382423092797  0.7532807884379451 14.4082225044675365
  2.7184516453459797  3.1613738292158278 14.3524108565030257
 -0.6774149946806604  1.9680648096654449 15.5675802836324095
