Pt Tc Pt Tc Pt Tc Pt Tc Pt Tc Pt  H 
 1.0000000000000000
     5.5874386045942863    0.0000000000000000    0.0000000000000000
     2.6427448129811402    4.7484996639633952    0.0000000000000000
     0.0000000000000000    0.0000000000000000   24.5149722651513891
 Pt  Tc  Pt  Tc  Pt  Tc  Pt  Tc  Pt  Tc  Pt  H  
   1   1   1   2   1   1   1   1   1   1   1   1
Cartesian
  1.1703980450776696  0.9034482924617644  9.9999991953333218
  3.9641173473748124  0.9034482924617644  9.9999991953333218
  2.4917704515682400  3.2776981244434618  9.9999991953333218
  5.2854897538653827  3.2776981244434618  9.9999991953333218
  2.6427448769326913  1.6388490622217309 12.2574861325756945
  5.4364641792298345  1.6388490622217309 12.2574861325756945
  3.9641172834232616  4.0130988942034289 12.2574861325756945
  6.7578365857204048  4.0130988942034289 12.2574861325756945
  0.0274125050721550 -0.0150820231836920 14.4035231274212059
  2.7349781816503209  0.0240837919846647 14.5433018608334805
  1.3195858448906004  2.3754873052396253 14.4134067552444307
  4.0638064640827531  2.4116309045573545 14.5433204186674860
  3.4699003034054803  1.1785812112099603 15.6890826835920709
