Ti Mo Ti Mo Ti Mo Ti  H 
 1.0000000000000000
     5.3051126245736215    0.0000000000000000    0.0000000000000000
    -2.6525558122868462    5.3443026218002663    0.0000000000000000
     0.0000000000000000    0.0000000000000000   24.6055362587424575
 Ti  Mo  Ti  Mo  Ti  Mo  Ti  H  
   1   2   2   2   2   2   1   1
Cartesian
  0.0000000000000000  0.0000000000000000  9.9999993255658524
 -1.3262779061434231  2.6721513109001331  9.9999993255658524
  1.3262784061433877  2.6721513109001331  9.9999993255658524
  0.0000004999999645  5.3443026218002663  9.9999993255658524
  2.6525564354602764  1.3165526400688938 12.3027681293712288
  1.3262785293168531  3.9887039509690272 12.3027681293712288
 -1.3262777829699579  3.9887039509690272 12.3027681293712288
  0.0000001231734653  1.3165526400688938 12.3027681293712288
 -0.0007421073321163  2.6474358672890665 14.7101016534942808
 -1.3800700828494015  5.3035746374610904 14.5208914524984429
  1.3778105508501004  5.3038553309233922 14.5208749175780749
  2.6517377250652214  2.6609749044347280 14.6587168540870891
 -0.0006547276859927  4.4527380863516228 15.6766425989209690
