Os Ru Os Ru Os Ru  H 
 1.0000000000000000
     5.4464026145749669    0.0000000000000000    0.0000000000000000
    -2.7232008072875185    4.7167226662121546    0.0000000000000000
     0.0000000000000000    0.0000000000000000   24.4469672699638920
 Os  Ru  Os  Ru  Os  Ru  H  
   3   1   3   1   3   1   1
Cartesian
  0.0000000000000000  0.0000000000000000  9.9999991783956208
 -1.3616004036437592  2.3583613331060773  9.9999991783956208
  1.3616009036437242  2.3583613331060773  9.9999991783956208
  2.7232013072874834  0.0000000000000000  9.9999991783956208
  2.7232014766773394  1.5722408871651441 12.2234836349819460
  1.3616010730335799  3.9306022202712212 12.2234836349819460
 -1.3616002342539035  3.9306022202712212 12.2234836349819460
  0.0000001693898560  1.5722408871651441 12.2234836349819460
  0.0146489148975868  3.1932729638896640 14.3691785995712316
  1.3734308047385007  0.7792900938138742 14.3373712371834952
  4.0498724058664743  0.7490402137038664 14.3691788440409027
  2.7015740997061894  3.1569699060463083 14.3642068931784408
 -1.3091857013405963  2.3281026185745159 15.4134759600562870
