Ir Rh Ir Rh Ir Rh Ir Rh Ir  H 
 1.0000000000000000
     5.4678086130601304    0.0000000000000000    0.0000000000000000
     2.7263418070652397    4.7308866652098125    0.0000000000000000
     0.0000000000000000    0.0000000000000000   24.4623712688737989
 Ir  Rh  Ir  Rh  Ir  Rh  Ir  Rh  Ir  H  
   1   1   1   2   2   1   1   2   1   1
Cartesian
  1.3556086175342035  0.7942918665697882  9.9999991459015192
  4.0895129240642687  0.7942918665697882  9.9999991459015192
  2.7187795210668235  3.1597351991746945  9.9999991459015192
  5.4526838275968883  3.1597351991746945  9.9999991459015192
  2.7263419137984441  1.5798675995873472 12.2311856344368994
  5.4602462203285089  1.5798675995873472 12.2311856344368994
  6.8234171238611285  3.9453109321922537 12.2311856344368994
  4.0895128173310642  3.9453109321922537 12.2311856344368994
  2.7628120877372324 -0.0166591077585366 14.3843147266301195
  0.0052885507417267 -0.0067359168589990 14.4624425746015355
  1.3716461082294780  2.3642528759389063 14.4624444826664948
  4.0992949228987099  2.3641615698262677 14.3893096492947681
  0.7031786655073271  1.1702789754769447 15.5945153967531134
