Pt  H 
 1.0000000000000000
     5.6414393216630003    0.0000000000000000    0.0000000000000000
     2.8207196608310001    4.8856297664680000    0.0000000000000000
     0.0000000000000000    0.0000000000000000   30.9093238764729996
 Pt  H  
  16   1
Cartesian
  0.0000029944044567  0.0000123925189064 11.9478884555487479
  2.8207187876896733  0.0000263505470613 11.9479716515924430
  1.4103725783455512  2.4427925872633565 11.9480357935603489
  4.2310675195444647  2.4427959878550340 11.9480528986118859
  1.4103736191425882  0.8143036056270949 14.2967030341291821
  4.2310639709580107  0.8143033676994850 14.2967123635390241
  2.8207183291915081  3.2570472963417281 14.2967435996707017
  5.6414391294004931  3.2570640734714322 14.2967873435822739
  0.0000054060242511  1.6285106001004406 16.6128594476646470
  2.8207132995902335  1.6285295203583185 16.6128942010646199
  1.4103756109611105  4.0713783188406589 16.6128248758822679
  4.2310627484794967  4.0713856680550364 16.6128331482563460
 -0.0258515007518757 -0.0389614926801632 18.9942977765051637
  2.8501606173333154 -0.0390380432940894 18.9925825945438191
  1.4133769232947861  2.4579242125960046 18.9895196186353132
  4.2317297278561643  2.4184905473595846 18.9367025124586803
  1.4074428814118924  0.7948653271179638 19.8464473470753227
