Ag Ru Ag Ru Ag Ru Ag Ru Ag  H 
 1.0000000000000000
     5.8958095827718280    0.0000000000000000    0.0000000000000000
     2.4123068292885219    4.7566566633861491    0.0000000000000000
     0.0000000000000000    0.0000000000000000   24.5966392593720720
 Ag  Ru  Ag  Ru  Ag  Ru  Ag  Ru  Ag  H  
   1   2   1   1   2   1   1   2   1   1
Cartesian
  0.6705553011327734  1.1549428370942185  9.9999992037186249
  3.6184600925186876  1.1549428370942185  9.9999992037186249
  4.8246135071629483  3.5332711687872931  9.9999992037186249
  1.8767087157770344  3.5332711687872931  9.9999992037186249
  2.4123067565293788  1.7666355843936465 12.2983196296860360
  5.3602115479152932  1.7666355843936465 12.2983196296860360
  6.5663649625595548  4.1449639160867218 12.2983196296860360
  3.6184601711736404  4.1449639160867218 12.2983196296860360
  3.2524790500809080 -0.1781094412679968 14.9106290444383038
  0.3501422847136377 -0.1089021512047202 14.4314064004116691
  1.4881181841894142  2.1304056213295124 14.4277467402461834
  4.3817388710967657  2.2347385899799206 14.8443368464157057
  8.3111130726233533  3.2458352159470087 15.5270535378083832
