Ru Hg Ru Hg Ru Hg  H 
 1.0000000000000000
     5.6108206029396150    0.0000000000000000    0.0000000000000000
    -2.8054098014698430    4.8591126561356566    0.0000000000000000
     0.0000000000000000    0.0000000000000000   24.5812142604636499
 Ru  Hg  Ru  Hg  Ru  Hg  H  
   3   1   3   1   3   1   1
Cartesian
  0.0000000000000000  0.0000000000000000  9.9999993787498838
 -1.4027049007349215  2.4295563280678283  9.9999993787498838
  1.4027054007348860  2.4295563280678283  9.9999993787498838
  0.0000004999999645  4.8591126561356566  9.9999993787498838
  2.8054104709418723  1.6197042170921814 12.2906071302318249
  1.4027055702069511  4.0492605451600099 12.2906071302318249
 -1.4027047312628564  4.0492605451600099 12.2906071302318249
  0.0000001694720649  1.6197042170921814 12.2906071302318249
 -0.2971365359509450  3.1881821768157952 14.5287495245950886
  1.5054691761496901  0.7372056459451061 14.4608280161549310
  3.9796950373946682  1.0347750324948928 14.5001830072290030
  2.4814325918917755  3.3967879064889783 14.8974709832223233
 -0.6149413310329499  4.3676736348097949 15.7751616005592332
