Tc Rh Tc Rh Tc Rh  H 
 1.0000000000000000
     5.4663896131605485    0.0000000000000000    0.0000000000000000
    -2.7331948065802742    4.7340326649871800    0.0000000000000000
     0.0000000000000000    0.0000000000000000   24.4632872688089762
 Tc  Rh  Tc  Rh  Tc  Rh  H  
   3   1   3   1   3   1   1
Cartesian
  0.0000000000000000  0.0000000000000000  9.9999992923310419
 -1.3665975032901301  2.3670163324935900  9.9999992923310419
  1.3665975032901301  2.3670163324935900  9.9999992923310419
  0.0000000000000000  4.7340326649871800  9.9999992923310419
  2.7331950065802602  1.5780108883290600 12.2316436344044881
  1.3665975032901301  3.9450272208226500 12.2316436344044881
 -1.3665975032901301  3.9450272208226500 12.2316436344044881
  0.0000000000000000  1.5780108883290600 12.2316436344044881
 -0.0000616999956337  3.2204903720958775 14.3440197849181743
  1.4226110993262213  0.7568078464430542 14.3441557849085513
  4.0436512138433356  0.7568227464419998 14.3441291849104342
  2.7332187065785827  3.1559671766619841 14.4623233765461965
  2.7330755065887167  3.1561142766515742 16.0832373618391387
