Tc Re Tc Re Tc Re  H 
 1.0000000000000000
     5.5037776105147156    0.0000000000000000    0.0000000000000000
    -2.7518888052573578    4.7664106626958889    0.0000000000000000
     0.0000000000000000    0.0000000000000000   24.4938142666486733
 Tc  Re  Tc  Re  Tc  Re  H  
   3   1   3   1   3   1   1
Cartesian
  0.0000000000000000  0.0000000000000000  9.9999994134081529
 -1.3759444026286789  2.3832053313479444  9.9999994134081529
  1.3759444026286789  2.3832053313479444  9.9999994134081529
  2.7518888052573578  0.0000000000000000  9.9999994134081529
  2.7518888080092463  1.5888035526431594 12.2469071333243367
  1.3759444053805678  3.9720088839911041 12.2469071333243367
 -1.3759443998767900  3.9720088839911041 12.2469071333243367
  0.0000000027518887  1.5888035526431594 12.2469071333243367
  0.0180659986526299  3.1546186446967979 14.4151087818822408
  1.3790721829334016  0.8024273322855444 14.3712678180964666
  4.1453865406618027  0.7708824781933491 14.3892452490279883
  2.7275726974870054  3.1409596608209771 14.3868883807378083
 -1.4134891398417833  3.1355448419509599 15.6234824509646621
