Tc Hf Tc Hf Tc Hf  H 
 1.0000000000000000
     5.6760935983204472    0.0000000000000000    0.0000000000000000
    -2.8380467991602236    4.9156406521353455    0.0000000000000000
     0.0000000000000000    0.0000000000000000   24.6345092566921267
 Tc  Hf  Tc  Hf  Tc  Hf  H  
   3   1   3   1   3   1   1
Cartesian
  0.0000000000000000  0.0000000000000000  9.9999992425249591
 -1.4190233995801118  2.4578203260676728  9.9999992425249591
  1.4190233995801118  2.4578203260676728  9.9999992425249591
  2.8380467991602236  0.0000000000000000  9.9999992425249591
  2.8380468019982703  1.6385468824065683 12.3172546283460633
  1.4190234024181585  4.0963672084742413 12.3172546283460633
 -1.4190233967420649  4.0963672084742413 12.3172546283460633
  0.0000000028380468  1.6385468824065683 12.3172546283460633
  0.2006061971038275  3.2224483081575759 14.6460720979142511
  1.4719753078127593  1.0203766039255322 14.6460635497395391
  4.0413735477101538  0.6947952259788341 14.4492446353281316
  3.0588504728347923  3.4046160716194924 14.6466883547978171
 -1.0522122846407469  4.3081970880597735 15.7033712920792361
