Tc Rh Tc Rh Tc Rh  H 
 1.0000000000000000
     5.4663896131605485    0.0000000000000000    0.0000000000000000
    -2.7331948065802742    4.7340326649871800    0.0000000000000000
     0.0000000000000000    0.0000000000000000   24.4632872688089762
 Tc  Rh  Tc  Rh  Tc  Rh  H  
   3   1   3   1   3   1   1
Cartesian
  0.0000000000000000  0.0000000000000000  9.9999992612815980
 -1.3665974032901371  2.3670163324935900  9.9999992612815980
  1.3665974032901371  2.3670163324935900  9.9999992612815980
  0.0000000000000000  4.7340326649871800  9.9999992612815980
  2.7331948093134688  1.5780108867510492 12.2316436344044881
  1.3665974060233319  3.9450272192446389 12.2316436344044881
 -1.3665974005569423  3.9450272192446389 12.2316436344044881
  0.0000000027331948  1.5780108867510492 12.2316436344044881
 -0.0077596220517255  3.2666269079013057 14.3789947851953812
  1.4463152690091958  0.7430674437167569 14.3773513904832377
  4.0001118354462726  0.7405362937377356 14.3789342874859649
  2.7256706492611356  3.1604987292572457 14.3926913393980165
 -0.0043768971653356  1.5802382775241215 15.3900574575046534
