 W  N  H 
 1.0000000000000000
     4.9779200000000001    0.0000000000000000    0.0000000000000000
     0.8442721010000001    5.2673169949999998    0.0000000000000000
     0.0000000000000000    0.0000000000000000   37.4144000000000005
 W   N   H  
  12  18   1
Cartesian
  4.2451999999999996  0.3871500000000000  1.1976300000000000
  1.7929400000000000  0.6745300000000000  2.6365900000000000
  4.2862099999999996  1.1784600000000001  3.9554499999999999
  1.7827400000000000  3.2904399999999998  1.8677299999999999
  1.7805400000000000  1.5800900000000000  5.3551200000000003
  4.3044300000000000  1.8642200000000000  6.7922599999999997
  1.8160900000000000  2.3794000000000000  8.1055799999999998
  4.2960000000000003  4.4833800000000004  6.0248400000000002
  4.2853800000000000  2.7824000000000000  9.4935399999999994
  1.8853500000000001  3.1115699999999999 10.9295200000000001
  4.2441700000000004  3.6287799999999999 12.1075800000000005
  0.9796600000000000  0.4823100000000000 10.2295900000000000
  0.9660800000000000  4.0008400000000002  0.2016600000000000
  3.4468299999999998  4.3704000000000001  1.5362400000000000
  0.9408600000000000  4.7720799999999999  2.9359099999999998
  2.5573600000000001  1.5879399999999999  0.9140300000000000
  2.5930000000000000  2.3671300000000000  3.5831800000000000
  5.1726799999999997  1.9666600000000001  2.2336399999999998
  3.4793500000000002  5.1937899999999999  4.3587800000000003
  0.1378500000000000  0.2960200000000000  5.6933499999999997
  2.6080999999999999  0.6989100000000000  7.0975700000000002
  5.0706199999999999  2.7808799999999998  5.0711500000000003
  5.0921900000000004  3.5581800000000001  7.7364199999999999
  2.7075600000000000  3.1570499999999999  6.3895099999999996
  5.1466700000000003  1.1321300000000001  8.5309500000000007
  2.6571300000000000  1.5163199999999999  9.8677499999999991
  5.1259199999999998  1.9457400000000000 11.3534699999999997
  2.5726300000000002  3.9905499999999998  9.2119300000000006
  2.6813899999999999  4.7125399999999997 11.8878299999999992
  5.2168099999999997  4.3912000000000004 10.5680700000000005
  4.7744499999999999  3.2730500000000000 13.7428000000000008
