Fe  N Fe  N Fe  N Fe  N Fe  N Fe  N Fe  N Fe  N Fe  N Fe  N Fe  N Fe  N Fe  N Fe  N Fe  N Fe  N  H 
 1.0000000000000000
     5.9617800000000001    0.0000000000000000    0.0000000000000000
     2.9808900000000005    5.1630529317739908    0.0000000000000000
     0.0000000000000000    0.0000000000000000   29.2066000000000017
 Fe  N   Fe  N   Fe  N   Fe  N   Fe  N   Fe  N   Fe  N   Fe  N   Fe  N   Fe  N   Fe  N   Fe  N   Fe  N   Fe  N   Fe  N   Fe  N   H  
   1   1   1   1   1   1   1   1   1   1   1   1   1   1   1   1   1   1   1   1   1   1   1   1   1   1   1   1   1   1   1   1   1
Cartesian
  0.5589168750000000  0.3226908082358744  0.9127062500000001
  2.0493469705500003  1.1831910251099866  1.5210797280000001
  2.0493469705500003  1.1831910251099866  3.3464922280000002
  3.5398217794500004  2.0437170572487577  3.9551577720000006
  3.5667214643387641  2.0621212289761104  5.7934972358297765
  0.5868547121408226  0.3418114790448806  6.3523995821848800
  0.6558496223176932  0.3239793729744579  8.1842401369966105
  2.0994083679394260  1.2121546212952627  8.7497575017900449
  2.0493618750000002  2.9042172741228698  0.9127062500000001
  3.5397919705500005  3.7647174909969818  1.5210797280000001
  3.5397919705500005  3.7647174909969818  3.3464922280000002
  5.0302667794500007  4.6252435231357527  3.9551577720000006
  5.0569823832342715  4.6406677857511740  5.8092542646437595
  2.0776962981121891  2.9205761606957794  6.3652335795699591
  2.0919654070691425  2.9288144336914357  8.2192295174779009
  3.5845860741785547  3.7905793802696017  8.7334466816795633
  3.5398068750000000  0.3226908082358744  0.9127062500000001
  5.0302369705499999  1.1831910251099866  1.5210797280000001
  5.0302369705499999  1.1831910251099866  3.3464922280000002
  6.5207117794500000  2.0437170572487577  3.9551577720000006
  6.5494165834923495  2.0602897830724181  5.7919581702194680
  3.5706391159467032  0.3404918132069737  6.3494380406742819
  3.5391071807506935  0.3222868378925181  8.1829635451704732
  5.0788968393076779  1.2112848118334762  8.8757809923328015
  5.0302518749999994  2.9042172741228698  0.9127062500000001
  6.5206819705500001  3.7647174909969818  1.5210797280000001
  6.5206819705500001  3.7647174909969818  3.3464922280000002
  8.0111567794500012  4.6252435231357527  3.9551577720000006
  8.0405451035719633  4.6393372494328000  5.7934972358297765
  5.0607797814934479  2.9188518161525967  6.3523995821848773
  5.0798341763590678  2.9875192138251387  8.1842401369966105
  6.5707958789605518  3.7935901364254412  8.7497575017900449
  5.0804471717209960  1.2121798967644744  9.9055440042578304
