 W  N  H 
 1.0000000000000000
     4.9779200000000001    0.0000000000000000    0.0000000000000000
     0.8442721010000001    5.2673169949999998    0.0000000000000000
     0.0000000000000000    0.0000000000000000   37.4144000000000005
 W   N   H  
  12  18   1
Cartesian
  4.2451999999999996  0.3871500000000000  1.1976300000000000
  1.7929400000000000  0.6745300000000000  2.6365900000000000
  4.2862099999999996  1.1784600000000001  3.9554499999999999
  1.7827400000000000  3.2904399999999998  1.8677299999999999
  1.7805400000000000  1.5800900000000000  5.3551200000000003
  4.3013300000000001  1.8625900000000000  6.7926599999999997
  1.8109000000000000  2.3702399999999999  8.1036699999999993
  4.2960000000000003  4.4833800000000004  6.0248400000000002
  4.2793599999999996  2.7620000000000000  9.4937699999999996
  1.8273400000000000  3.0771999999999999 10.9501299999999997
  4.2120400000000000  3.5708799999999998 12.0794400000000000
  0.9921300000000000  0.4256700000000000 10.2232099999999999
  0.9660800000000000  4.0008400000000002  0.2016600000000000
  3.4468299999999998  4.3704000000000001  1.5362400000000000
  0.9408600000000000  4.7720799999999999  2.9359099999999998
  2.5573600000000001  1.5879399999999999  0.9140300000000000
  2.5930000000000000  2.3671300000000000  3.5831800000000000
  5.1726799999999997  1.9666600000000001  2.2336399999999998
  3.4793500000000002  5.1937899999999999  4.3587800000000003
  0.1378500000000000  0.2960200000000000  5.6933499999999997
  2.6042200000000002  0.6961000000000001  7.0964900000000002
  5.0706199999999999  2.7808799999999998  5.0711500000000003
  5.0917000000000003  3.5506500000000001  7.7427099999999998
  2.7048500000000000  3.1572200000000001  6.3909700000000003
  5.1401500000000002  1.1205900000000000  8.5243599999999997
  2.6297199999999998  1.5118400000000001  9.8499599999999994
  5.1114100000000002  1.8877299999999999 11.3364499999999992
  2.5854800000000000  3.9708000000000001  9.2129999999999992
  2.7369500000000002  4.7622400000000003 11.8352400000000006
  5.1985799999999998  4.3487000000000000 10.5505499999999994
  2.8016299999999998  2.3226599999999999 12.3999199999999998
