Ru  N  H 
 1.0000000000000000
     6.4436400000000003    0.0000000000000000    0.0000000000000000
     0.0000000000000000    6.4436400000000003    0.0000000000000000
     0.0000000000000000    0.0000000000000000   27.3381000000000007
 Ru  N   H  
  16  16   1
Cartesian
  1.6109100000000001  1.6109100000000001  1.7086300000000001
  0.0000000000000000  0.0000000000000000  3.9867200000000000
  1.6109100000000001  1.6109100000000001  6.1820399999999998
  0.1076000000000000  6.0792000000000002  8.3962500000000002
  1.6109100000000001  4.8327299999999997  1.7086300000000001
  0.0000000000000000  3.2218200000000001  3.9867200000000000
  1.6109100000000001  4.8327299999999997  6.0519699999999998
  0.1076000000000000  3.5862599999999998  8.3962500000000002
  4.8327299999999997  1.6109100000000001  1.7086300000000001
  3.2218200000000001  0.0000000000000000  3.9867200000000000
  4.8327299999999997  1.6109100000000001  6.3767199999999997
  3.1142200000000000  6.0792000000000002  8.3962500000000002
  4.8327299999999997  4.8327299999999997  1.7086300000000001
  3.2218200000000001  3.2218200000000001  3.9867200000000000
  4.8327299999999997  4.8327299999999997  6.4046900000000004
  3.1142200000000000  3.5862599999999998  8.3962500000000002
  0.0000000000000000  1.6109100000000001  0.5694500000000000
  1.6109100000000001  0.0000000000000000  2.8478100000000000
  6.3714399999999998  1.6109100000000001  5.1463700000000001
  1.6109100000000001  6.4199500000000000  7.2597199999999997
  0.0000000000000000  4.8327299999999997  0.5694500000000000
  1.6109100000000001  3.2218200000000001  2.8478100000000000
  6.3329000000000004  4.8327299999999997  5.1090200000000001
  1.6109100000000001  3.2455099999999999  7.2597199999999997
  3.2218200000000001  1.6109100000000001  0.5694500000000000
  4.8327299999999997  0.0000000000000000  2.8478100000000000
  3.2940200000000002  1.6109100000000001  5.1463700000000001
  4.8327299999999997  0.0624400000000000  7.5959899999999996
  3.2218200000000001  4.8327299999999997  0.5694500000000000
  4.8327299999999997  3.2218200000000001  2.8478100000000000
  3.3325600000000000  4.8327299999999997  5.1090200000000001
  4.8327299999999997  3.1593800000000001  7.5959899999999996
  1.6109100000000001  4.8327299999999997  9.3868600000000004
