La Pb La Pb La Pb  H 
 1.0000000000000000
     7.1013914974565324    0.0000000000000000    0.0000000000000000
     2.8652627972342319    6.4976945401782951    0.0000000000000000
     0.0000000000000000    0.0000000000000000   25.8815761684410681
 La  Pb  La  Pb  La  Pb  H  
   2   2   2   2   2   2   1
Cartesian
  0.0000000000000000  0.0000000000000000  9.9999992923310419
  4.9833275473453540  3.2488472700891475  9.9999992923310419
  3.5506959487282521  0.0000000000000000  9.9999992923310419
  1.4326315986171017  3.2488472700891475  9.9999992923310419
  7.1013918974565042  4.6297052723701064 12.9407882842205186
  2.1180643501111502  1.3808580022809587 12.9407882842205186
  3.5506959487282521  4.6297052723701064 12.9407882842205186
  5.6687602988394019  1.3808580022809587 12.9407882842205186
  3.9239503223141967  2.6729449108439729 15.8824851760457477
  9.0128731621868994  5.7578843925323664 15.8818598760899992
  7.3494293799036594  2.4731032249861493 15.7248831871987509
  5.4148574168073225  5.8471143862178359 15.8038402816112029
  2.7107811081664219  4.0805845112296799 17.1687093850236465
