 W  N  W  N  W  N  W  N  W  N  W  N  W  N  W  N  H 
 1.0000000000000000
     5.8240800000000004    0.0000000000000000    0.0000000000000000
     0.0000000000000000    7.7826000000000004    0.0000000000000000
     0.0000000000000000    0.0000000000000000   30.2627999999999986
 W   N   W   N   W   N   W   N   W   N   W   N   W   N   W   N   H  
   2   4   2   4   2   4   2   4   2   4   2   4   2   4   2   4   1
Cartesian
  2.1840299999999999  1.9456500000000001  0.4203502920000000
  2.1840299999999999  5.8369499999999999  2.1014488320000000
  0.7280100000000000  3.1919555640000001  1.2610508759999999
  0.7280100000000000  4.5906444360000007  1.2610508759999999
  0.7280100000000000  7.0832555639999999  1.2610508759999999
  0.7280100000000000  0.6993444360000000  1.2610508759999999
  0.7280100000000000  1.9456500000000001  2.9421494159999999
  0.7280100000000000  5.8369499999999999  4.6235505840000002
  2.1840299999999999  3.1919555640000001  3.7828499999999998
  2.1840299999999999  4.5906444360000007  3.7828499999999998
  2.1840299999999999  7.0832555639999999  3.7828499999999998
  2.1840299999999999  0.6993444360000000  3.7828499999999998
  2.1840299999999999  1.9449626631024977  5.4697735279329285
  2.1840299999999999  5.8360036074478332  7.1560807955767078
  0.7279615920149400  3.1869084687926765  6.3107669525462349
  0.7292725584999098  4.5838662532842607  6.3125015493364875
  0.7324654073084171  7.0873214610367246  6.3118880894871303
  0.7278206258262511  0.7014590366370163  6.3103594944592887
  0.7017021180903410  1.9421539829502898  8.0055189488348102
  0.8428281470738547  5.8341389932943235  9.5647890205502950
  2.1840299999999999  3.1442108501995301  8.7564296621026312
  2.1840299999999999  4.4373734746458640  8.9697939948081942
  2.1840299999999999  7.2104405199496036  8.9039343775346254
  2.1840299999999999  0.7382549324708059  8.7514384393416726
  5.0960700000000001  1.9456500000000001  0.4203502920000000
  5.0960700000000001  5.8369499999999999  2.1014488320000000
  3.6400500000000005  3.1919555640000001  1.2610508759999999
  3.6400500000000005  4.5906444360000007  1.2610508759999999
  3.6400500000000005  7.0832555639999999  1.2610508759999999
  3.6400500000000005  0.6993444360000000  1.2610508759999999
  3.6400500000000005  1.9456500000000001  2.9421494159999999
  3.6400500000000005  5.8369499999999999  4.6235505840000002
  5.0960700000000001  3.1919555640000001  3.7828499999999998
  5.0960700000000001  4.5906444360000007  3.7828499999999998
  5.0960700000000001  7.0832555639999999  3.7828499999999998
  5.0960700000000001  0.6993444360000000  3.7828499999999998
  5.0960700000000001  1.9446045899594360  5.4611518983167979
  5.0960700000000001  5.8344353904654307  7.1424597083231474
  3.6400984079850716  3.1869084687926765  6.3107669525462349
  3.6387874415000860  4.5838662532842607  6.3125015493364875
  3.6355945926915809  7.0873214610367219  6.3118880894871321
  3.6402393741737509  0.7014590366370155  6.3103594944592887
  3.6663578819096614  1.9421539829502898  8.0055189488348102
  3.5252318529261473  5.8341389932943200  9.5647890205502950
  5.0960700000000001  3.2135108006942579  8.7732146492221901
  5.0960700000000001  4.5794711316292842  8.8785326683753389
  5.0960700000000001  7.0929851738249425  8.8908165386893003
  5.0960700000000001  0.6729846595401575  8.7674233130750192
  2.1840300000000052  5.8907434367373366 10.9797642010821530
