 W  N  H 
 1.0000000000000000
     5.8240800000000004    0.0000000000000000    0.0000000000000000
     0.0000000000000000    7.7826000000000004    0.0000000000000000
     0.0000000000000000    0.0000000000000000   30.2627999999999986
 W   N   H  
  16  32   1
Cartesian
  2.1840299999999999  1.9456500000000001  0.4203500000000000
  2.1840299999999999  5.8369499999999999  2.1014499999999998
  0.7280100000000000  1.9456500000000001  2.9421499999999998
  0.7280100000000000  5.8369499999999999  4.6235499999999998
  2.1840299999999999  1.9456500000000001  5.4658899999999999
  2.1840299999999999  5.8369499999999999  7.1498600000000003
  0.7024600000000000  1.9456500000000001  7.9986899999999999
  0.8411999999999999  5.8369499999999999  9.5525099999999998
  5.0960700000000001  1.9456500000000001  0.4203500000000000
  5.0960700000000001  5.8369499999999999  2.1014499999999998
  3.6400500000000000  1.9456500000000001  2.9421499999999998
  3.6400500000000000  5.8369499999999999  4.6235499999999998
  5.0960700000000001  1.9456500000000001  5.4591799999999999
  5.0960700000000001  5.8369499999999999  7.1339300000000003
  3.6656000000000000  1.9456500000000001  7.9986899999999999
  3.5268600000000001  5.8369499999999999  9.5525099999999998
  0.7280100000000000  3.1919599999999999  1.2610500000000000
  0.7280100000000000  4.5906399999999996  1.2610500000000000
  0.7280100000000000  7.0832600000000001  1.2610500000000000
  0.7280100000000000  0.6993400000000000  1.2610500000000000
  2.1840299999999999  3.1919599999999999  3.7828499999999998
  2.1840299999999999  4.5906399999999996  3.7828499999999998
  2.1840299999999999  7.0832600000000001  3.7828499999999998
  2.1840299999999999  0.6993400000000000  3.7828499999999998
  0.7297800000000000  3.1894999999999998  6.3033299999999999
  0.7307100000000000  4.5856300000000001  6.3048299999999999
  0.7307100000000000  7.0882699999999996  6.3048299999999999
  0.7297800000000000  0.7018000000000000  6.3033299999999999
  2.1840299999999999  3.1494700000000000  8.7454999999999998
  2.1840299999999999  4.4510199999999998  8.9277899999999999
  2.1840299999999999  7.2228800000000000  8.9277899999999999
  2.1840299999999999  0.7418300000000000  8.7454999999999998
  3.6400500000000000  3.1919599999999999  1.2610500000000000
  3.6400500000000000  4.5906399999999996  1.2610500000000000
  3.6400500000000000  7.0832600000000001  1.2610500000000000
  3.6400500000000000  0.6993400000000000  1.2610500000000000
  5.0960700000000001  3.1919599999999999  3.7828499999999998
  5.0960700000000001  4.5906399999999996  3.7828499999999998
  5.0960700000000001  7.0832600000000001  3.7828499999999998
  5.0960700000000001  0.6993400000000000  3.7828499999999998
  3.6382800000000000  3.1894999999999998  6.3033299999999999
  3.6373500000000001  4.5856300000000001  6.3048299999999999
  3.6373500000000001  7.0882699999999996  6.3048299999999999
  3.6382800000000000  0.7018000000000000  6.3033299999999999
  5.0960700000000001  3.2145500000000000  8.7639499999999995
  5.0960700000000001  4.5796400000000004  8.8709199999999999
  5.0960700000000001  7.0942600000000002  8.8709199999999999
  5.0960700000000001  0.6767500000000000  8.7639499999999995
  2.1840299999999999  5.8369499999999999 10.9670400000000008
