 W  N  H 
 1.0000000000000000
     5.8240800000000004    0.0000000000000000    0.0000000000000000
     0.0000000000000000    7.7826000000000004    0.0000000000000000
     0.0000000000000000    0.0000000000000000   30.2627999999999986
 W   N   H  
  16  32   1
Cartesian
  2.1840299999999999  1.9456500000000001  0.4203500000000000
  2.1840299999999999  5.8369499999999999  2.1014499999999998
  0.7280100000000000  1.9456500000000001  2.9421499999999998
  0.7280100000000000  5.8369499999999999  4.6235499999999998
  2.1819500000000001  1.9456500000000001  5.4646499999999998
  2.2017400000000000  5.8369499999999999  7.1378399999999997
  0.7280100000000000  1.9456500000000001  7.9986199999999998
  0.7280100000000000  5.8369499999999999  9.5791900000000005
  5.0960700000000001  1.9456500000000001  0.4203500000000000
  5.0960700000000001  5.8369499999999999  2.1014499999999998
  3.6400500000000000  1.9456500000000001  2.9421499999999998
  3.6400500000000000  5.8369499999999999  4.6235499999999998
  5.0981500000000004  1.9456500000000001  5.4646499999999998
  5.0783600000000000  5.8369499999999999  7.1378399999999997
  3.6400500000000000  1.9456500000000001  8.0080600000000004
  3.6400500000000000  5.8369499999999999  9.5243199999999995
  0.7280100000000000  3.1919599999999999  1.2610500000000000
  0.7280100000000000  4.5906399999999996  1.2610500000000000
  0.7280100000000000  7.0832600000000001  1.2610500000000000
  0.7280100000000000  0.6993400000000000  1.2610500000000000
  2.1840299999999999  3.1919599999999999  3.7828499999999998
  2.1840299999999999  4.5906399999999996  3.7828499999999998
  2.1840299999999999  7.0832600000000001  3.7828499999999998
  2.1840299999999999  0.6993400000000000  3.7828499999999998
  0.7280100000000000  3.1932299999999998  6.3073100000000002
  0.7280100000000000  4.5918700000000001  6.3105399999999996
  0.7280100000000000  7.0820299999999996  6.3105399999999996
  0.7280100000000000  0.6980700000000000  6.3073100000000002
  2.1794899999999999  3.1802500000000000  8.7642600000000002
  2.1761800000000000  4.5176299999999996  8.8900199999999998
  2.1761800000000000  7.1562700000000001  8.8900199999999998
  2.1794899999999999  0.7110500000000000  8.7642600000000002
  3.6400500000000000  3.1919599999999999  1.2610500000000000
  3.6400500000000000  4.5906399999999996  1.2610500000000000
  3.6400500000000000  7.0832600000000001  1.2610500000000000
  3.6400500000000000  0.6993400000000000  1.2610500000000000
  5.0960700000000001  3.1919599999999999  3.7828499999999998
  5.0960700000000001  4.5906399999999996  3.7828499999999998
  5.0960700000000001  7.0832600000000001  3.7828499999999998
  5.0960700000000001  0.6993400000000000  3.7828499999999998
  3.6400500000000000  3.1836899999999999  6.3089100000000000
  3.6400500000000000  4.5758099999999997  6.3009599999999999
  3.6400500000000000  7.0980900000000000  6.3009599999999999
  3.6400500000000000  0.7076100000000000  6.3089100000000000
  5.1006099999999996  3.1802500000000000  8.7642600000000002
  5.1039199999999996  4.5176299999999996  8.8900199999999998
  5.1039199999999996  7.1562700000000001  8.8900199999999998
  5.1006099999999996  0.7110500000000000  8.7642600000000002
  0.7280100000000000  5.8369499999999999 11.3563200000000002
