Ti  N  H 
 1.0000000000000000
     5.6618000000000004    0.0000000000000000    0.0000000000000000
     0.0000000000000000    5.1846600000000000    0.0000000000000000
     0.0000000000000000    0.0000000000000000   38.1120999999999981
 Ti  N   H  
  24  16   1
Cartesian
  3.3294199999999998  1.6746500000000000  4.1568899999999998
  0.0414400000000000  4.2669800000000002  0.3456800000000000
  1.7223200000000001  1.7550100000000000  6.7370799999999997
  4.0961400000000001  4.3473400000000000  2.9258700000000002
  2.5626400000000000  4.3473400000000000  5.3879099999999998
  4.9365199999999998  1.7550100000000000  1.5767000000000000
  4.5532199999999996  0.8373200000000000  6.7370799999999997
  1.2652399999999999  3.4296500000000001  2.9258700000000002
  5.3935399999999998  3.4296500000000001  5.3879099999999998
  2.1056200000000000  0.8373200000000000  1.5767000000000000
  2.8723399999999999  3.5100099999999999  0.3456800000000000
  0.4985200000000000  0.9176800000000001  4.1568899999999998
  4.2657200000000000  1.6906500000000000 11.7248900000000003
  0.9573600000000000  4.2705900000000003  7.9465000000000003
  2.5136200000000000  1.5895500000000000 14.1843400000000006
  5.0219399999999998  4.3520500000000002 10.4922500000000003
  3.5047999999999999  4.3696299999999999 12.9501500000000007
  0.1941400000000000  1.7614099999999999  9.1766900000000007
  5.3381100000000004  0.9573100000000000 14.1783099999999997
  2.1932600000000000  3.4091000000000000 10.5034799999999997
  0.6633800000000000  3.3816199999999998 12.9284999999999997
  3.0203700000000002  0.8299299999999999  9.1807700000000008
  3.7889200000000001  3.5074600000000000  7.9477500000000001
  1.4324300000000001  0.8780600000000000 11.7425400000000000
  5.0500400000000001  2.5923300000000000  3.4655300000000002
  2.6761599999999999  0.0000000000000000  7.2767400000000002
  1.6087400000000001  2.5923300000000000  4.8486200000000004
  3.9826199999999998  0.0000000000000000  1.0374099999999999
  5.5070600000000001  2.5923300000000000  7.2767400000000002
  2.2191399999999999  0.0000000000000000  3.4655300000000002
  1.1517200000000001  2.5923300000000000  1.0374099999999999
  4.4396399999999998  0.0000000000000000  4.8486200000000004
  0.3279500000000000  2.5854200000000001 11.0466300000000004
  3.6755399999999998  0.1337100000000000 14.7076700000000002
  2.5323799999999999  2.6040399999999999 12.4531700000000001
  4.8988899999999997  0.0036300000000000  8.6374499999999994
  0.8141900000000000  2.4904299999999999 14.8506099999999996
  3.1608299999999998  5.1719600000000003 11.0454000000000008
  2.0707900000000001  2.5906600000000002  8.6369900000000008
  5.3655700000000000  5.1429999999999998 12.4400899999999996
  0.6453900000000000  3.0300500000000001 15.7052999999999994
