 Y  N  Y  N  Y  N  Y  N  Y  N  Y  N  Y  N  Y  N  H 
 1.0000000000000000
     4.0198099999999997    0.0000000000000000    0.0000000000000000
     0.0000000000000000    9.8201999999999998    0.0000000000000000
     0.0000000000000000    0.0000000000000000   34.8126000000000033
 Y   N   Y   N   Y   N   Y   N   Y   N   Y   N   Y   N   Y   N   H  
   2   2   2   2   2   2   2   2   2   2   2   2   2   2   2   2   1
Cartesian
  3.0148574999999997  1.2275250000000000  0.5803260420000000
  3.0148574999999997  3.6825749999999999  2.9009339580000004
  3.0148574999999997  3.6825749999999999  0.5803260420000000
  3.0148574999999997  1.2275250000000000  2.9009339580000004
  1.0049524999999999  1.2275250000000000  4.0615860420000001
  1.0049524999999999  3.6825749999999999  6.3821939580000002
  1.0049524999999999  3.6825749999999999  4.0615860420000001
  1.0049524999999999  1.2275250000000000  6.3821939580000002
  3.0148574999999997  1.2298046006894774  7.5276541182810393
  3.0148574999999997  3.6825749999999999  9.8453798065804818
  3.0148574999999997  3.6825749999999999  7.5346866988130783
  3.0148574999999997  1.2302462418480866  9.8115478443904980
  1.0049524999999999  1.2468895545420366 10.9996860677583701
  1.0049524999999999  3.6825749999999999 13.4020287188369025
  1.0049524999999999  3.6825749999999999 11.0532747597478771
  1.0049524999999999  1.1901948168913610 13.1967918204591221
  3.0148574999999997  6.1376249999999999  0.5803260420000000
  3.0148574999999997  8.5926749999999998  2.9009339580000004
  3.0148574999999997  8.5926749999999998  0.5803260420000000
  3.0148574999999997  6.1376249999999999  2.9009339580000004
  1.0049524999999999  6.1376249999999999  4.0615860420000001
  1.0049524999999999  8.5926749999999998  6.3821939580000002
  1.0049524999999999  8.5926749999999998  4.0615860420000001
  1.0049524999999999  6.1376249999999999  6.3821939580000002
  3.0148574999999997  6.1353453993105180  7.5276541182810437
  3.0148574999999997  8.5926749999999998  9.8419483930725598
  3.0148574999999997  8.5926749999999998  7.5375613251849343
  3.0148574999999997  6.1349037581519186  9.8115478443904980
  1.0049524999999999  6.1182604454579632 10.9996860677583701
  1.0049524999999999  8.5926749999999998 13.2344447745005613
  1.0049524999999999  8.5926749999999998 11.0389754192211207
  1.0049524999999999  6.1749551831086400 13.1967918204591221
  1.0049524999999999  3.6825749999999999 15.4992732140919554
