Re  N  H 
 1.0000000000000000
     3.6890100000000001    0.0000000000000000    0.0000000000000000
     0.5760683760000000    5.7184370319999998    0.0000000000000000
     0.0000000000000000    0.0000000000000000   31.1944000000000017
 Re  N   H  
   8  16   1
Cartesian
  1.2342299999999999  4.4474000000000000  1.2050399999999999
  2.4104600000000000  1.3335399999999999  0.2966600000000000
  3.8494899999999999  4.5555899999999996  3.8047800000000001
  1.3366700000000000  1.4416800000000001  2.8963999999999999
  2.7751100000000002  4.6673299999999998  6.3929999999999998
  0.2568700000000000  1.5586500000000001  5.5006599999999999
  1.7456499999999999  4.8060099999999997  8.9014000000000006
  2.8266700000000000  1.6648600000000000  8.1758000000000006
  3.0770200000000001  4.9635499999999997  0.4211200000000000
  0.5676700000000000  0.8173899999999999  1.0808899999999999
  2.5023499999999999  2.7701300000000000  1.7986700000000000
  3.7576000000000001  3.1190099999999998  2.3027700000000002
  2.0032700000000001  5.0717400000000001  3.0205500000000001
  3.1829000000000001  0.9255900000000000  3.6803200000000000
  1.4285699999999999  2.8782600000000000  4.3984100000000002
  2.6838199999999999  3.2271999999999998  4.9021999999999997
  0.9262500000000000  5.1905599999999996  5.6155400000000002
  2.1030199999999999  1.0525899999999999  6.3060000000000000
  0.3147500000000000  2.9859700000000000  7.0243700000000002
  1.5643199999999999  3.3264900000000002  7.5045700000000002
  3.5698900000000000  5.3259600000000002  8.1700499999999998
  0.9941300000000000  1.0716800000000000  8.9106900000000007
  2.9832800000000002  3.2951700000000002  9.6067300000000007
  0.5009100000000000  3.6423199999999998 10.0493699999999997
  0.9901500000000000  2.8155899999999998 10.4210499999999993
