Re  N  H 
 1.0000000000000000
     5.7473799999999997    0.0000000000000000    0.0000000000000000
     0.0000000000000000    5.6291465000000001    0.0000000000000000
     0.0000000000000000    0.0000000000000000   33.8990999999999971
 Re  N   H  
  16  32   1
Cartesian
  1.7533000000000001  1.4073300000000000  3.9004300000000001
  1.3835100000000000  0.0000000000000000  0.5105200000000000
  5.1033900000000001  1.4073300000000000  6.2693000000000003
  4.7336000000000000  0.0000000000000000  2.8793899999999999
  2.4990199999999998  1.3885300000000000 10.7098999999999993
  2.1161200000000000 -0.0021600000000000  7.2888099999999998
  0.1960900000000000  1.2757700000000001 12.9790799999999997
  5.4611000000000001 -0.0082500000000000  9.6264299999999992
  1.7533000000000001  4.2219800000000003  3.9004300000000001
  1.3835100000000000  2.8146499999999999  0.5105200000000000
  5.1033900000000001  4.2219800000000003  6.2693000000000003
  4.7336000000000000  2.8146499999999999  2.8793899999999999
  2.5041500000000001  4.2119499999999999 10.6925299999999996
  2.1135400000000000  2.8113199999999998  7.2926799999999998
  0.2084900000000000  4.2546499999999998 12.9867299999999997
  5.4568700000000003  2.8063500000000001  9.6485199999999995
  1.4247799999999999  1.4073300000000000  5.9452199999999999
  1.0550500000000000  0.0000000000000000  2.5553100000000000
  5.4318499999999998  1.4073300000000000  4.2245100000000004
  5.0620599999999998  0.0000000000000000  0.8346000000000000
  3.2950300000000001  1.4073300000000000  2.3522599999999998
  3.6648200000000002  0.0000000000000000  5.7421699999999998
  2.8220800000000001  1.4073300000000000  1.0376500000000000
  3.1918600000000001  0.0000000000000000  4.4275599999999997
  1.9728699999999999  1.4394800000000001 12.6683800000000009
  1.7873600000000001 -0.0091600000000000  9.3337199999999996
  0.4197600000000000  1.3933000000000000 10.9442199999999996
  0.0448600000000000 -0.0013500000000000  7.6049400000000000
  4.0220599999999997  1.4010100000000001  9.1254299999999997
  4.5256699999999999 -0.0271800000000000 12.4577399999999994
  3.5503700000000000  1.4045399999999999  7.8140499999999999
  3.9640700000000000 -0.0260000000000000 11.2320700000000002
  1.4247799999999999  4.2219800000000003  5.9452199999999999
  1.0550500000000000  2.8146499999999999  2.5553100000000000
  5.4318499999999998  4.2219800000000003  4.2245100000000004
  5.0620599999999998  2.8146499999999999  0.8346000000000000
  3.2950300000000001  4.2219800000000003  2.3522599999999998
  3.6648200000000002  2.8146499999999999  5.7421699999999998
  2.8220800000000001  4.2219800000000003  1.0376500000000000
  3.1918600000000001  2.8146499999999999  4.4275599999999997
  1.9681900000000001  4.2230600000000003 12.6374800000000000
  1.7885500000000001  2.8001200000000002  9.3430300000000006
  0.4343500000000000  4.2331700000000003 10.9465800000000009
  0.0436800000000000  2.8118099999999999  7.6140800000000004
  4.0259700000000000  4.2161700000000000  9.1213800000000003
  4.5746900000000004  2.8137699999999999 12.4938900000000004
  3.5508799999999998  4.2163000000000004  7.8120599999999998
  3.9618600000000002  2.7889900000000001 11.2609100000000009
  4.6553300000000002  2.3183099999999999 13.7972900000000003
