Au Mn Au Mn Au Mn  H 
 1.0000000000000000
     5.8808135838330484    0.0000000000000000    0.0000000000000000
    -2.9404067919165242    5.0929346395887993    0.0000000000000000
     0.0000000000000000    0.0000000000000000   24.8016632448631569
 Au  Mn  Au  Mn  Au  Mn  H  
   3   1   3   1   3   1   1
Cartesian
  0.0000000000000000  0.0000000000000000  9.9999992923310419
 -1.4702034959582551  2.5464671197944142  9.9999992923310419
  1.4702034959582551  2.5464671197944142  9.9999992923310419
  2.9404068919165169  0.0000000000000000  9.9999992923310419
  2.9404068919165169  1.6976446798629472 12.4008315224315862
  1.4702034959582551  4.2441117996573610 12.4008315224315862
 -1.4702034959582551  4.2441117996573610 12.4008315224315862
  0.0000000000000000  1.6976446798629472 12.4008315224315862
  0.0000005999999575  3.3655210618325051 14.8108019518854483
  1.4444212977827813  0.8637064388781722 14.8107980518857243
  4.4363867860506563  0.8637084388780306 14.8108248518838259
  2.9404070919165028  3.3952875597260221 14.8442058495215576
  2.9404063919165528  3.3952899597258521 16.4547242355501631
