 Y  N  H 
 1.0000000000000000
     4.0198099999999997    0.0000000000000000    0.0000000000000000
     0.0000000000000000    9.8201999999999998    0.0000000000000000
     0.0000000000000000    0.0000000000000000   34.8126000000000033
 Y   N   H  
  16  16   1
Cartesian
  0.0000000000000000  1.2275199999999999  2.3209599999999999
  2.0099000000000000  3.6825700000000001  1.1603000000000001
  2.0099000000000000  1.2275199999999999  5.8022200000000002
  0.0000000000000000  3.6825700000000001  4.6415600000000001
  0.0000000000000000  1.2259100000000001  9.2538099999999996
  2.0099000000000000  3.6759800000000000  8.1151300000000006
  2.0099000000000000  1.0579900000000000 12.7484800000000007
  0.0000000000000000  3.6689099999999999 11.6130899999999997
  0.0000000000000000  6.1376200000000001  2.3209599999999999
  2.0099000000000000  8.5926700000000000  1.1603000000000001
  2.0099000000000000  6.1376200000000001  5.8022200000000002
  0.0000000000000000  8.5926700000000000  4.6415600000000001
  0.0000000000000000  6.1238000000000001  9.2550699999999999
  2.0099000000000000  8.5866900000000008  8.0995699999999999
  2.0099000000000000  6.2824099999999996 12.7426300000000001
  0.0000000000000000  8.5826700000000002 11.4919700000000002
  0.0000000000000000  3.6825700000000001  2.3209599999999999
  2.0099000000000000  1.2275199999999999  1.1603000000000001
  2.0099000000000000  3.6825700000000001  5.8022200000000002
  0.0000000000000000  1.2275199999999999  4.6415600000000001
  0.0000000000000000  3.6711999999999998  9.3193199999999994
  2.0099000000000000  1.2351700000000001  8.1325900000000004
  2.0099000000000000  3.6534100000000000 12.7542200000000001
  0.0000000000000000  1.2129200000000000 11.6562999999999999
  0.0000000000000000  8.5926700000000000  2.3209599999999999
  2.0099000000000000  6.1376200000000001  1.1603000000000001
  2.0099000000000000  8.5926700000000000  5.8022200000000002
  0.0000000000000000  6.1376200000000001  4.6415600000000001
  0.0000000000000000  8.5838400000000004  9.2216500000000003
  2.0099000000000000  6.1150000000000002  8.1339799999999993
  2.0099000000000000  8.5762400000000003 12.5566600000000008
  0.0000000000000000  6.1245399999999997 11.6513500000000008
  2.0099000000000000  3.6589800000000001 13.7924500000000005
