 W  N  H 
 1.0000000000000000
     5.9606300000000001    0.0000000000000000    0.0000000000000000
     0.0000000000000000    8.0680399999999999    0.0000000000000000
     0.0000000000000000    0.0000000000000000   34.8271000000000015
 W   N   H  
   8  16   1
Cartesian
  2.2358919192999962  1.0092311236000007  0.1250292890000906
  5.2162069192999967  5.0432511236000011  2.3922734989998817
  2.2358919192999962  3.0247888763999993  3.0271715319999726
  5.2162069192999967  7.0588088763999988  5.2944157420000106
  2.2403110028517932  1.0035737711377875  5.9511650521504347
  5.5015455474309718  5.0969986649556427  8.2877975949986524
  2.5189814256010616  2.9833028244656759  8.9286686123324763
  5.7235859326356398  6.9105920045678602 11.2762421736512906
  0.5719820547999881  0.2337311188000089  5.6796034680000282
  5.3879922759000154  5.6030924191999887  0.6265395289999129
  2.4076772759000158  1.5690724191999896  1.8904149879999512
  3.5522970547999884  4.2677511188000086  2.6419838059999550
  5.3879922759000154  6.4989675808000111  3.5290300429999060
  0.5719820547999881  3.8002888811999909  2.7774612249998993
  3.5522970547999884  7.8343088811999912  5.5444743199999484
  2.4076772759000158  2.4649475808000103  4.7929055019999414
  0.0193279790204724  0.5771053882157572 11.4325479078984440
  5.3520370833406368  5.6420304238799917  6.4582353207427010
  2.4543891258589001  1.5633498878530310  7.6798887896405086
  4.1095594781693094  3.9973153811945545  8.7728341262871030
  5.5285391669186588  6.5459586196656829  9.4062254478329024
  1.1041367011365149  4.1348849494509992  8.5520940825457661
  4.0881345590908094  6.8309833996720561 11.9346141111272193
  2.3244132220889258  2.3131921485466100 10.5577914390840810
  1.8612350836235814  1.7944359872649014 11.3085599722200829
