Mo  N Mo  N  H 
 1.0000000000000000
     4.9934599999999998    0.0000000000000000    0.0000000000000000
     0.0000000000000000    6.0206999999999997    0.0000000000000000
     0.0000000000000000    0.0000000000000000   28.8216000000000001
 Mo  N   Mo  N   H  
   8   4   8   4   1
Cartesian
  2.8033284439999999  4.5155250000000002  3.0937105440000003
  0.9885053415999999  1.5051749999999999  0.6920066160000000
  3.4852353416000001  3.0103499999999999  0.6920066160000000
  0.3065984440000000  0.0000000000000000  3.0937105440000003
  1.1499439033999999  4.5155250000000002  0.5700912480000000
  2.9647670057999997  1.5051749999999999  2.9717951759999996
  0.4680370058000000  3.0103499999999999  2.9717951759999996
  3.6466739034000000  0.0000000000000000  0.5700912480000000
  1.2947043088000001  1.5051749999999999  4.2336048239999995
  4.4733911409999996  4.5155250000000002  1.8319008960000001
  3.7914343087999995  3.0103499999999999  4.2336048239999995
  1.9766611409999999  0.0000000000000000  1.8319008960000001
  1.5117592769712267  4.4584369831503157  7.7166317056467513
  4.6224758405874145  1.5411615434165407  5.5259930928621213
  2.1391349814804514  2.9941474040310654  5.5225429421007828
  3.9277582946372225  0.1789845770219367  7.7901400429645982
  4.8583377788760034  4.4854399846407116  5.3534633066777140
  1.5677398215700449  1.5475040267795390  7.7534155972678063
  3.9799401488112678  2.9376619697909878  7.7715317359662723
  2.2869238688531937  0.0163049617612176  5.3976019374881696
  4.8779374624668694  1.4871699073146434  8.8691834742222468
  3.2066752620365979  4.5245754154528841  6.5336778917271818
  2.2995683187361733  3.0784743874339937  8.8498198657733322
  0.5863671259365283  0.0056264127354188  6.5798280793005652
 -0.1791349959219500  4.5788666024284268  8.6972773517661022
