 W  N  H 
 1.0000000000000000
     6.2712700000000003    0.0000000000000000    0.0000000000000000
     0.0000000000000000    9.9430899999999998    0.0000000000000000
     0.0000000000000000    0.0000000000000000   28.7031999999999989
 W   N   H  
  12  24   1
Cartesian
  2.0903999999999998  2.6162299999999998  0.2853100000000000
  2.0903999999999998  7.5877699999999999  3.1556299999999999
  0.0000000000000000  4.9715400000000001  4.3648999999999996
  0.0000000000000000  0.0000000000000000  1.4945800000000000
  4.1808699999999996  7.3268599999999999  0.2853100000000000
  4.1808699999999996  2.3553199999999999  3.1556299999999999
  2.0605000000000002  2.6081099999999999  6.0534600000000003
  2.2049300000000001  7.6772799999999997  8.9800900000000006
  0.0457100000000000  4.9663500000000003 10.4302799999999998
 -0.0067200000000000  0.0298000000000000  7.3125000000000000
  4.2113899999999997  7.3403999999999998  6.0580800000000004
  4.0935499999999996  2.3672300000000002  8.9853000000000005
  3.3711199999999999  2.0656800000000000  4.7988900000000001
  3.3711199999999999  7.0372199999999996  1.9285699999999999
  1.2806599999999999  4.1840500000000000  5.4553300000000000
  1.2806599999999999  9.1555999999999997  2.5850100000000000
  5.4615200000000002  3.6933600000000002  3.2925399999999998
  5.4615200000000002  8.6649100000000008  0.4222200000000000
  4.9906100000000002  5.7590399999999997  5.4553300000000000
  4.9906100000000002  0.7874900000000000  2.5850100000000000
  0.8097500000000000  6.2497299999999996  3.2925399999999998
  0.8097500000000000  1.2781800000000001  0.4222200000000000
  2.9001500000000000  7.8774100000000002  4.7988900000000001
  2.9001500000000000  2.9058700000000002  1.9285699999999999
  3.1984100000000000  1.9733099999999999 10.4899199999999997
  3.4504600000000001  7.0369500000000000  7.6699999999999999
  1.1884200000000000  4.1862399999999997 11.6698799999999991
  1.2772800000000000  9.2352200000000000  8.3971900000000002
  5.2201500000000003  3.7893599999999998  9.4005299999999998
  5.4928600000000003  8.6632200000000008  6.2158400000000000
  5.4070499999999999  5.7532800000000002 11.8095099999999995
  5.0041099999999998  0.8047800000000001  8.4220900000000007
  1.0908899999999999  6.3075200000000002  9.5543099999999992
  0.7560200000000000  1.3032500000000000  6.1716600000000001
  3.1296400000000002  8.0919399999999992 10.4436099999999996
  2.8091400000000002  2.9062999999999999  7.6771700000000003
  0.4015600000000000  5.2348299999999997 12.2065000000000001
