Hg Zr Hg Zr Hg Zr Hg  H 
 1.0000000000000000
     6.3600035499222596    0.0000000000000000    0.0000000000000000
     3.1800017749611298    5.5079246102212460    0.0000000000000000
     0.0000000000000000    0.0000000000000000   25.1929202171751143
 Hg  Zr  Hg  Zr  Hg  Zr  Hg  H  
   1   1   3   1   3   1   2   1
Cartesian
  0.0000000000000000  0.0000000000000000  9.9999994514094546
  1.5900008874805649  2.7539623051106230  9.9999994514094546
  3.1800017749611298  0.0000000000000000  9.9999994514094546
  4.7700026624416942  2.7539623051106230  9.9999994514094546
  6.3600035531022607  3.6719497419834721 12.5964601085875572
  4.7700026656216963  0.9179874368728491 12.5964601085875572
  3.1800017781411314  3.6719497419834721 12.5964601085875572
  1.5900008906605667  0.9179874368728491 12.5964601085875572
  3.2093221386266881  2.0007544022960868 15.4969912510524939
  4.7700105965461237  4.5829665752945346 15.0079886834814147
  6.3312957722586241  2.0012524673948153 15.4977357270378295
  7.9502400182943163  4.7120750876283504 15.2833756434903840
  1.5892376202745369  0.5206216968767911 16.3194958069895186
