Pt La Pt La Pt La Pt  H 
 1.0000000000000000
     6.0254825735952728    0.0000000000000000    0.0000000000000000
     3.0127407867976719    5.2182206307226977    0.0000000000000000
     0.0000000000000000    0.0000000000000000   24.9197842365040998
 Pt  La  Pt  La  Pt  La  Pt  H  
   1   1   3   1   3   1   2   1
Cartesian
  0.0000000000000000  0.0000000000000000  9.9999993372338416
  1.5063703933988359  2.6091103153613489  9.9999993372338416
  3.0127412867976364  0.0000000000000000  9.9999993372338416
  4.5191116801964721  2.6091103153613489  9.9999993372338416
  6.0254822432747037  3.4788137555545386 12.4598921182520499
  4.5191118498758680  0.8697034401931898 12.4598921182520499
  3.0127409564770677  3.4788137555545386 12.4598921182520499
  1.5063705630782318  0.8697034401931898 12.4598921182520499
  3.0817990712759276  1.6994597629369195 14.9689361833026560
  4.5184296548186591  4.3489286367897995 15.1110327552648940
  5.9558139675665460  1.6994969688500163 14.9690168486442285
  7.5313927199907802  4.4281212401791539 14.9690086749550009
  1.5062242272638517  2.6088881652726577 15.3977526905516058
