Hf  N  H 
 1.0000000000000000
     6.3868099999999997    0.0000000000000000    0.0000000000000000
     3.1934049999999998    5.5311397089999996    0.0000000000000000
     0.0000000000000000    0.0000000000000000   36.5037000000000020
 Hf  N   H  
  12  16   1
Cartesian
  6.3868099999999997  2.0741800000000001  2.9334400000000000
  7.9835099999999999  4.8397500000000004  2.9334400000000000
  3.1934100000000001  2.0741800000000001  0.9779300000000000
  4.7901100000000003  4.8397500000000004  2.9334400000000000
  3.1934100000000001  2.0741800000000001  4.8889399999999998
  6.3867799999999999  3.9178700000000002  0.3259800000000000
  3.1934000000000000  3.9087499999999999  8.2718500000000006
  1.6046100000000001  1.1568799999999999  8.2718600000000002
  6.3867799999999999  3.9178700000000002  6.2428900000000001
  4.7821899999999999  1.1568900000000000  8.2718500000000006
  6.3868200000000002  3.9178999999999999 10.0806799999999992
  6.3867700000000003  0.2304400000000000  5.6272099999999998
  3.1934100000000001  4.0326399999999998  4.1964699999999997
  4.8894900000000003  1.0949400000000000  4.1964699999999997
  6.3868400000000003  0.2304800000000000  1.7514500000000000
  1.4973200000000000  1.0949400000000000  4.1964699999999997
  4.8894900000000003  3.0534100000000000  1.6700400000000000
  6.3867799999999999  3.9178700000000002  4.1154299999999999
  3.1934000000000000  0.1157100000000000  1.6700400000000000
  7.8841299999999999  3.0534100000000000  1.6700400000000000
  3.1934100000000001  0.2222200000000000  9.2511899999999994
  7.9763799999999998  3.0001600000000002  9.2511899999999994
  3.1934000000000000  2.0741700000000001  6.9432900000000002
  4.7972799999999998  3.0001799999999998  9.2511600000000005
  8.0902499999999993  4.9013700000000000  6.8300099999999997
  6.3868099999999997  0.2304600000000000  9.2129799999999999
  6.3868099999999997  1.9508900000000000  6.8299899999999996
  4.6833400000000003  4.9013900000000001  6.8299899999999996
  6.3868000000000000  3.9178799999999998 11.9686000000000003
