 W  N  H 
 1.0000000000000000
     8.0680399999999999    0.0000000000000000    0.0000000000000000
     0.0000000000000000    8.3199400000000008    0.0000000000000000
     0.0000000000000000    0.0000000000000000   33.2680999999999969
 W   N   H  
   8  16   1
Cartesian
  7.0588088763999988  2.8669681245999721  1.5047161629998866
  7.6093618555453233  7.7331024749531432  5.6711168143695074
  3.8263889338749855  3.1521958507018337  5.8851555897272725
  3.0247888763999993  6.5839845190000119  1.9594910900000431
  7.0813007494903975  5.0083988162715158  6.3630270362901769
  5.0432511236000011  0.8421443267999825  3.5839724129998869
  1.0092311236000007  4.5592439205999895  4.0387473400000431
  1.0761659783846704  2.7453591600528435  6.5103098228586989
  7.8343088811999912  3.8847463848000152  2.8444225500001061
  8.5009121132205312  9.3735664755174763  6.2904929736024737
  2.7390210739931882  2.7940302159001131  7.4106978909376915
  2.4649475808000103  5.2290822900000213  3.1045790919999496
  6.4989675808000111  3.9757665283999977  0.1197651599999568
  6.4920192258936442  8.2386038749640846  4.3216697700287057
  5.4694257186543780  4.2440710130473809  6.0036509963164297
  3.8002888811999909  7.9503682651999812  2.9412327210001061
  2.1146390912135176  3.2271326127092279  4.9348430644268388
  1.5690724191999896  7.2539060878000114  1.0253228419999501
  4.2677511188000086  5.9095701826000049  0.7651663000001063
  4.3919757437262170  1.6019097162287597  5.2193622379174336
  0.2221922646702197  6.0603082314845977  5.0355175290134673
  0.2337311188000089  1.6551688636000028  0.8619764710001064
  6.6970138607320013  6.7792717974738723  7.0003115109524989
  5.6030924191999887  1.9509427306000084  2.1990214099999568
  7.9368771542796832  3.8812820427183548  7.5714053882247789
