Al Au Al Au Al Au Al  H 
 1.0000000000000000
     5.6165086025370927    0.0000000000000000    0.0000000000000000
     2.0983318515075582    5.2098146313175651    0.0000000000000000
     0.0000000000000000    0.0000000000000000   24.6365562565472693
 Al  Au  Al  Au  Al  Au  Al  H  
   1   2   2   2   2   2   1   1
Cartesian
  0.0000000000000000  0.0000000000000000  9.9999993966074729
  1.0491659257537791  2.6049073156587825  9.9999993966074729
  2.8082543012685464  0.0000000000000000  9.9999993966074729
  3.8574202270223257  2.6049073156587825  9.9999993966074729
  5.6165087260856374  3.7928158738192854 12.3182781282736347
  4.5673428003318586  1.1879085581605031 12.3182781282736347
  2.8082544248170915  3.7928158738192854 12.3182781282736347
  1.7590884990633127  1.1879085581605031 12.3182781282736347
  3.7864862807239961  2.3281106509788896 14.7192010009087397
  4.4289680852135831  4.8853590356442522 14.6900455828670609
  6.8049446356697949  2.6969468392710905 14.6894684222636371
  7.4315709606205429  5.2486786397901994 14.7175608960856277
  4.5578938650614242  1.1819302750318075 15.8375709681238508
