Re  N  H 
 1.0000000000000000
     4.1473699999999996    0.0000000000000000    0.0000000000000000
     0.0000000000000000    9.5357500000000002    0.0000000000000000
     0.0000000000000000    0.0000000000000000   31.2850000000000001
 Re  N   H  
  16  32   1
Cartesian
  1.6634300000000000  5.8038400000000001  2.1330100000000001
  0.4102600000000000  1.0359600000000000  2.1330100000000001
  2.4839400000000000  3.7319100000000001  0.7111100000000000
  3.7371099999999999  8.4997900000000008  0.7111100000000000
  1.6634300000000000  5.8038400000000001  4.9771299999999998
  0.4102600000000000  1.0359600000000000  4.9771299999999998
  2.4839400000000000  3.7319100000000001  3.5552299999999999
  3.7371099999999999  8.4997900000000008  3.5552299999999999
  1.7033199999999999  5.8085599999999999  7.8744600000000000
  0.4036800000000000  1.0601600000000000  7.8619100000000000
  2.4876900000000002  3.7261799999999998  6.4362199999999996
  3.7399900000000001  8.4988600000000005  6.4329200000000002
  1.7919799999999999  5.9614599999999998 10.4379399999999993
  0.3834800000000000  1.0680900000000000 10.4501299999999997
  2.5413800000000002  3.7043499999999998  9.3587600000000002
  3.6826200000000000  8.4951699999999999  9.1911500000000004
  0.1841000000000000  6.4232800000000001  0.7111100000000000
  1.8895800000000000  1.6554100000000000  0.7111100000000000
  3.9632700000000001  3.1124700000000001  2.1330100000000001
  2.2577900000000000  7.8803400000000003  2.1330100000000001
  3.1594699999999998  5.6742499999999998  0.7111100000000000
  3.0615899999999998  0.9063700000000000  0.7111100000000000
  0.9879000000000000  3.8614999999999999  2.1330100000000001
  1.0857800000000000  8.6293799999999994  2.1330100000000001
  0.1841000000000000  6.4232800000000001  3.5552299999999999
  1.8895800000000000  1.6554100000000000  3.5552299999999999
  3.9632700000000001  3.1124700000000001  4.9771299999999998
  2.2577900000000000  7.8803400000000003  4.9771299999999998
  3.1594699999999998  5.6742499999999998  3.5552299999999999
  3.0615899999999998  0.9063700000000000  3.5552299999999999
  0.9879000000000000  3.8614999999999999  4.9771299999999998
  1.0857800000000000  8.6293799999999994  4.9771299999999998
  0.1939600000000000  6.4049199999999997  6.4333799999999997
  1.8857900000000001  1.6455700000000000  6.4337700000000000
  3.9911699999999999  3.1253600000000001  7.9015899999999997
  2.2274099999999999  7.8698600000000001  7.8300700000000001
  3.1544699999999999  5.6703700000000001  6.4199099999999998
  3.0686599999999999  0.9071200000000000  6.4209300000000002
  1.0299600000000000  3.8633700000000002  7.9216699999999998
  1.0783300000000000  8.6361200000000000  7.8215500000000002
  0.2314300000000000  6.4991599999999998  9.2538800000000005
  1.8803399999999999  1.6887000000000001  9.2628000000000004
  3.7313900000000002  2.7908400000000002 10.7531900000000000
  2.1581100000000002  8.0095799999999997 10.6844800000000006
  3.2884000000000002  5.6492599999999999  9.2404100000000007
  2.9999899999999999  0.8799100000000000  9.2182600000000008
  1.5149600000000001  4.3077699999999997 11.1253899999999994
  1.1108800000000001  8.7894000000000005 10.5733499999999996
  0.1520800000000000  3.4678300000000002 11.3350399999999993
