Cd Ag Cd Ag Cd Ag  H 
 1.0000000000000000
     6.2452125580456626    0.0000000000000000    0.0000000000000000
    -3.1226057790228667    5.4085126172563243    0.0000000000000000
     0.0000000000000000    0.0000000000000000   25.0991932238078839
 Cd  Ag  Cd  Ag  Cd  Ag  H  
   3   1   3   1   3   1   1
Cartesian
  0.0000000000000000  0.0000000000000000  9.9999992923310419
 -1.5613029895114261  2.7042562086281690  9.9999992923310419
  1.5613029895114261  2.7042562086281690  9.9999992923310419
  3.1226060790228454  0.0000000000000000  9.9999992923310419
  3.1226060790228454  1.8028374724187795 12.5495965119039479
  1.5613029895114261  4.5070936810469489 12.5495965119039479
 -1.5613029895114261  4.5070936810469489 12.5495965119039479
  0.0000000000000000  1.8028374724187795 12.5495965119039479
  0.0003379999760808  3.6175904439943358 15.5878839968937584
  1.5436626907597755  0.9115740354907307 15.2639931198145131
  4.7018700672632274  0.9117531354780564 15.2633306198613958
  3.1227142790151881  3.6068818447521505 15.0325941361899016
 -0.0000764999945863  3.5942544456457521 17.3544342718804714
