Nb  N  H 
 1.0000000000000000
     5.3445200000000002    0.0000000000000000    0.0000000000000000
    -1.7272608330000001   10.5485613300000001    0.0000000000000000
     0.0000000000000000    0.0000000000000000   29.2037000000000013
 Nb  N   H  
  16  20   1
Cartesian
  0.8071199999999999  2.9118200000000001  0.7885000000000000
  2.6014100000000000  0.3687200000000000  1.4461700000000000
  3.6067700000000000  3.4381499999999998  2.2042999999999999
  0.0564800000000000  0.8950500000000000  2.8619599999999998
  2.5725500000000001  1.4524600000000001  4.3476999999999997
  3.5610900000000001  4.1631099999999996  5.1435399999999998
 -0.2693600000000000  1.8128500000000001  5.8826299999999998
  0.9742800000000000  4.5735000000000001  6.2786299999999997
 -0.0565100000000000  8.1861099999999993  0.7885000000000000
  1.7377800000000001  5.6430100000000003  1.4461700000000000
  2.7431399999999999  8.7124299999999995  2.2042999999999999
 -0.8071500000000000  6.1693300000000004  2.8619599999999998
  1.6718999999999999  6.7208699999999997  4.3715999999999999
  2.5696800000000000  9.4131800000000005  5.1916599999999997
 -1.1155200000000001  7.1906999999999996  5.7801099999999996
  0.0118500000000000  9.9583999999999993  6.3136200000000002
 -0.0000100000000000  4.5405800000000003  1.8252299999999999
  4.3949900000000000  1.6539600000000001  1.1141200000000000
  2.6952099999999999  4.0197399999999996  0.3405200000000000
  2.6492800000000001  5.0614100000000004  3.3099500000000002
  1.8131299999999999  2.1529099999999999  2.5363400000000000
  1.7433600000000000  3.0211399999999999  5.4621000000000004
  0.8174400000000001  0.1420900000000000  4.7422000000000004
  4.4785000000000004  2.5343599999999999  4.0020400000000000
  4.6360200000000003  3.5574499999999998  6.8494599999999997
  3.4801299999999999  0.6371700000000000  6.2403800000000000
 -0.8636500000000000  9.8148599999999995  1.8252299999999999
  3.5313599999999998  6.9282399999999997  1.1141200000000000
  1.8315800000000000  9.2940199999999997  0.3405200000000000
  1.7856500000000000 10.3356899999999996  3.3099500000000002
  0.9495000000000000  7.4271900000000004  2.5363400000000000
  0.8050200000000000  8.2510499999999993  5.5408900000000001
 -0.0028000000000000  5.3940599999999996  4.7619199999999999
  3.5670400000000000  7.8181700000000003  3.9799899999999999
  3.6571099999999999  8.8259500000000006  6.8131000000000004
  2.6629399999999999  5.9078299999999997  6.2142999999999997
  0.8398000000000000  0.9294200000000000  7.2804000000000002
