Cd Nb Cd Nb Cd Nb Cd  H 
 1.0000000000000000
     6.1355625658052526    0.0000000000000000    0.0000000000000000
     3.0677817829025908    5.3135536239762775    0.0000000000000000
     0.0000000000000000    0.0000000000000000   25.0096652301435007
 Cd  Nb  Cd  Nb  Cd  Nb  Cd  H  
   1   1   3   1   3   1   2   1
Cartesian
  0.0000000000000000  0.0000000000000000  9.9999994727644932
  1.5338908914512954  2.6567768119881388  9.9999994727644932
  3.0677812829026263  0.0000000000000000  9.9999994727644932
  4.6016721743539222  2.6567768119881388  9.9999994727644932
  6.1355629022063436  3.5423690844220364 12.5048326150717504
  4.6016720107550482  0.8855922724338974 12.5048326150717504
  3.0677816193037173  3.5423690844220364 12.5048326150717504
  1.5338907278524219  0.8855922724338974 12.5048326150717504
  3.0797078106424527  1.7641461692290468 15.2793645601235202
  4.6014324865366110  4.4279149961005650 14.7708390354525765
  6.1240785508526994  1.7640164919528540 15.2788655922925134
  7.6697095640314998  4.4412604057979177 15.2793424765891217
  4.6014930363684572  0.8853101546177859 16.5709643865300116
