Nb  N  H 
 1.0000000000000000
     5.3445200000000002    0.0000000000000000    0.0000000000000000
    -1.7272608330000001   10.5485613300000001    0.0000000000000000
     0.0000000000000000    0.0000000000000000   29.2037000000000013
 Nb  N   H  
  16  20   1
Cartesian
  0.8071199999999999  2.9118200000000001  0.7885000000000000
  2.6014100000000000  0.3687200000000000  1.4461700000000000
  3.6067700000000000  3.4381499999999998  2.2042999999999999
  0.0564800000000000  0.8950500000000000  2.8619599999999998
  2.5825600000000000  1.4514199999999999  4.3433700000000002
  3.5843200000000000  4.1645899999999996  5.1457199999999998
 -0.2539000000000000  1.8111800000000000  5.8804999999999996
  0.9940200000000000  4.5711899999999996  6.2801000000000000
 -0.0565100000000000  8.1861099999999993  0.7885000000000000
  1.7377800000000001  5.6430100000000003  1.4461700000000000
  2.7431399999999999  8.7124299999999995  2.2042999999999999
 -0.8071500000000000  6.1693300000000004  2.8619599999999998
  1.6834100000000001  6.7175099999999999  4.3684399999999997
  2.5922800000000001  9.4147200000000009  5.1962099999999998
 -1.0957100000000000  7.1886900000000002  5.7739500000000001
  0.0279000000000000  9.9580699999999993  6.3142699999999996
 -0.0000100000000000  4.5405800000000003  1.8252299999999999
  4.3949900000000000  1.6539600000000001  1.1141200000000000
  2.6952099999999999  4.0197399999999996  0.3405200000000000
  2.6492800000000001  5.0614100000000004  3.3099500000000002
  1.8131299999999999  2.1529099999999999  2.5363400000000000
  1.7629900000000001  3.0209500000000000  5.4634600000000004
  0.8279100000000000  0.1424200000000000  4.7422300000000002
  4.4862900000000003  2.5341100000000001  4.0006599999999999
  4.6564300000000003  3.5584799999999999  6.8499600000000003
  3.4943700000000000  0.6351500000000000  6.2393799999999997
 -0.8636500000000000  9.8148599999999995  1.8252299999999999
  3.5313599999999998  6.9282399999999997  1.1141200000000000
  1.8315800000000000  9.2940199999999997  0.3405200000000000
  1.7856500000000000 10.3356899999999996  3.3099500000000002
  0.9495000000000000  7.4271900000000004  2.5363400000000000
  0.8221000000000001  8.2525999999999993  5.5366900000000001
  0.0126500000000000  5.3925000000000001  4.7600800000000003
  3.5771799999999998  7.8216700000000001  3.9766300000000001
  3.6787500000000000  8.8243399999999994  6.8144000000000000
  2.6809900000000000  5.9086299999999996  6.2091599999999998
  0.8485600000000000  0.9271400000000000  7.2821100000000003
