Nb  N  H 
 1.0000000000000000
     5.3445200000000002    0.0000000000000000    0.0000000000000000
     0.0000000000000000    9.7873800000000006    0.0000000000000000
     0.0000000000000000    0.0000000000000000   27.5406000000000013
 Nb  N   H  
  16  20   1
Cartesian
  1.8292700000000000  4.0122400000000003  0.5543900000000000
  0.9656500000000000  8.9059299999999997  2.5216200000000000
  2.9016500000000001  2.9958200000000001  3.3715199999999999
  3.7652700000000001  7.8895099999999996  1.4043000000000001
  0.8986300000000000  6.7915599999999996  0.1459700000000000
  0.0350100000000000  1.8978699999999999  2.1131899999999999
  1.9710099999999999  5.7751400000000004  2.9630899999999998
  2.8346300000000002  0.8814500000000000  0.9958700000000000
  0.1037700000000000  4.0185300000000002  4.4423700000000004
  4.6670299999999996  8.9278800000000000  6.3316600000000003
  0.9969100000000000  2.9874299999999998  7.1592799999999999
  2.0518100000000001  7.8928700000000003  5.4970499999999998
  4.5158199999999997  6.7813900000000000  4.0453599999999996
  3.7061899999999999  1.9444500000000000  5.9950000000000001
  0.2013600000000000  5.8728699999999998  6.8262400000000003
  1.1127499999999999  0.8876400000000000  4.9496399999999996
  3.7087800000000000  4.8936900000000003  3.7259699999999998
  4.5724000000000000  0.0000000000000000  1.7587400000000000
  2.7867400000000000  5.9306599999999996  0.9749400000000000
  1.9231199999999999  1.0369699999999999  2.9418899999999999
  1.0410100000000000  1.9501400000000000  0.2084800000000000
  0.1773800000000000  6.8438299999999996  2.1757100000000000
  2.7592699999999999  7.8372400000000004  3.3090000000000002
  3.6228899999999999  2.9435500000000001  1.3417800000000000
  1.0135300000000000  3.8567200000000001  2.5428199999999999
  1.8771599999999999  8.7504100000000005  0.5756000000000000
  1.2053199999999999  4.6971900000000000  8.0171100000000006
  2.8499900000000000  0.0220100000000000  5.7751400000000004
  1.0461100000000001  5.9288999999999996  4.9843099999999998
  0.1349500000000000  1.0419499999999999  6.9242200000000000
  4.6824800000000000  1.9553300000000000  4.1139700000000001
  3.7845800000000001  6.9250499999999997  6.1189600000000004
  0.9025500000000000  7.7709000000000001  7.1371900000000004
  1.8780900000000000  2.9547800000000000  5.3253800000000000
  4.6178400000000002  3.8227199999999999  6.3635500000000000
  0.1371600000000000  8.7538699999999992  4.5171200000000002
  2.7525800000000000  2.0820300000000000  7.6974999999999998
