Nb  N  H 
 1.0000000000000000
     5.3445200000000002    0.0000000000000000    0.0000000000000000
     0.0000000000000000    9.7873800000000006    0.0000000000000000
     0.0000000000000000    0.0000000000000000   27.5406000000000013
 Nb  N   H  
  16  20   1
Cartesian
  1.8292700000000000  4.0122400000000003  0.5543900000000000
  0.9656500000000000  8.9059299999999997  2.5216200000000000
  2.9016500000000001  2.9958200000000001  3.3715199999999999
  3.7652700000000001  7.8895099999999996  1.4043000000000001
  0.8986300000000000  6.7915599999999996  0.1459700000000000
  0.0350100000000000  1.8978699999999999  2.1131899999999999
  1.9710099999999999  5.7751400000000004  2.9630899999999998
  2.8346300000000002  0.8814500000000000  0.9958700000000000
  0.0911500000000000  4.0170300000000001  4.4259000000000004
  4.6121400000000001  8.9161500000000000  6.5594400000000004
  0.8563200000000000  2.9773800000000001  7.1196299999999999
  2.0260699999999998  7.8182499999999999  5.5739000000000001
  4.5491999999999999  6.8336800000000002  4.0682900000000002
  3.7335699999999998  1.8480399999999999  5.8959200000000003
  0.1635800000000000  5.8403900000000002  6.8536400000000004
  1.1345300000000000  0.8023700000000000  4.9413700000000000
  3.7087800000000000  4.8936900000000003  3.7259699999999998
  4.5724000000000000  0.0000000000000000  1.7587400000000000
  2.7867400000000000  5.9306599999999996  0.9749400000000000
  1.9231199999999999  1.0369699999999999  2.9418899999999999
  1.0410100000000000  1.9501400000000000  0.2084800000000000
  0.1773800000000000  6.8438299999999996  2.1757100000000000
  2.7592699999999999  7.8372400000000004  3.3090000000000002
  3.6228899999999999  2.9435500000000001  1.3417800000000000
  1.0135300000000000  3.8567200000000001  2.5428199999999999
  1.8771599999999999  8.7504100000000005  0.5756000000000000
  1.1712400000000001  4.6441499999999998  8.0330700000000004
  2.8429500000000001  9.7426700000000004  5.8043699999999996
  1.0343599999999999  5.8965800000000002  5.0089399999999999
  0.1101100000000000  1.0073500000000000  6.9879800000000003
  4.6423699999999997  1.9191700000000000  4.1245200000000004
  3.7714200000000000  6.8619899999999996  6.1025700000000001
  0.9130000000000000  7.7035700000000000  7.1761200000000001
  1.8711199999999999  2.8843299999999998  5.3463000000000003
  4.5643200000000004  3.7713899999999998  6.3826400000000003
  0.2138900000000000  8.6944900000000001  4.5198700000000001
  3.8912900000000001  8.8070400000000006  8.2214600000000004
