Ir  N  H 
 1.0000000000000000
     5.9138299999999999    0.0000000000000000    0.0000000000000000
     0.0000000000000000    9.6572399999999998    0.0000000000000000
     0.0000000000000000    0.0000000000000000   33.4536999999999978
 Ir  N   H  
  16  48   1
Cartesian
  4.7606299999999999  4.8286199999999999  5.1016899999999996
  0.8180600000000000  0.0000000000000000  2.3139900000000000
  4.7606299999999999  7.2429300000000003  0.9199800000000000
  2.7893200000000000  2.4143100000000000  3.7076699999999998
  4.7606299999999999  2.4143100000000000  0.9199800000000000
  2.7893200000000000  7.2429300000000003  3.7076699999999998
  0.8180600000000000  4.8286199999999999  2.3139900000000000
  4.7606299999999999  0.0000000000000000  5.1016899999999996
  0.7573400000000000  4.7590599999999998 10.4639699999999998
  2.8068100000000000  9.6516900000000003  7.9029800000000003
  0.8161400000000000  7.2405499999999998  6.4938200000000004
  4.7778700000000001  2.4166400000000001  9.2903099999999998
  0.8170100000000000  2.3833899999999999  6.4903399999999998
  4.8515400000000000  7.2871400000000000  9.3510600000000004
  2.7883800000000001  4.8330200000000003  7.9104900000000002
  0.8219400000000000  9.6257099999999998 10.8548299999999998
  5.3520799999999999  5.8716999999999997  3.4289999999999998
  1.4095000000000000  1.0430800000000000  0.6413100000000000
  2.1979299999999999  3.7855400000000001  1.1986500000000000
  0.2266200000000000  8.6141600000000000  3.9863400000000002
  0.6840500000000000  1.9315400000000000  0.1281300000000000
  4.6266299999999996  6.7601599999999999  2.9161600000000001
  0.9520700000000000  7.7256999999999998  4.4995200000000004
  2.9233199999999999  2.8970799999999999  1.7114900000000000
  2.9233199999999999  5.2728500000000000  4.2877599999999996
  4.8945800000000004  0.4442300000000000  1.4997300000000000
  4.6266299999999996  4.3843899999999998  0.3398900000000000
  2.6553700000000000  9.2130100000000006  3.1279200000000000
  2.1979299999999999  4.3843899999999998  3.7745799999999998
  4.1691900000000004  9.2130100000000006  0.9868800000000000
  5.3520799999999999  5.2728500000000000  0.8530700000000000
  3.3807600000000000  0.4442300000000000  3.6407699999999998
  4.6266299999999996  3.3413100000000000  3.6855899999999999
  0.6840500000000000  8.1699300000000008  0.8975600000000000
  2.9233199999999999  6.3159299999999998  0.9420600000000000
  0.9520700000000000  1.4873099999999999  3.7300900000000001
  0.2266200000000000  1.4873099999999999  4.7557799999999997
  2.1979299999999999  6.3159299999999998  1.9680800000000001
  3.3807600000000000  8.1699300000000008  5.4472699999999996
  5.3520799999999999  3.3413100000000000  2.6595700000000000
  1.4466399999999999  5.9291000000000000  9.0157200000000000
  3.3749699999999998  1.0305400000000000  6.2311699999999997
  4.1547700000000001  3.7804600000000002  6.7887599999999999
  2.3349799999999998  8.5616500000000002  9.6486499999999999
  2.6493699999999998  1.9155700000000000  5.7240200000000003
  0.7250400000000000  6.8171299999999997  8.4881700000000002
  2.9946600000000001  7.7329600000000003 10.1847799999999999
  4.8541800000000004  2.8646199999999999  7.2723000000000004
  4.8526999999999996  5.2717200000000002  9.9293600000000009
  0.9569600000000000  0.4228800000000000  7.0827799999999996
  0.6914600000000000  4.3715299999999999  5.9287999999999998
  4.6577999999999999  9.2464700000000004  8.7324599999999997
  4.1068600000000002  4.3767500000000004  9.4548299999999994
  0.2252700000000000  9.2036899999999999  6.5659599999999996
  1.4136400000000000  5.2596900000000000  6.4372900000000000
  5.3686800000000003  0.4815200000000000  9.2523000000000000
  0.6722399999999999  3.2803300000000002  9.2221899999999994
  2.6596799999999998  8.1654000000000000  6.4694500000000001
  4.8884699999999999  6.3151900000000003  6.5366400000000002
  2.9170300000000000  1.4511799999999999  9.4152000000000005
  2.1775400000000000  1.3344300000000000 10.3729800000000001
  4.1752900000000004  6.3205400000000003  7.5735000000000001
  5.7040199999999999  8.1199399999999997 10.8747100000000003
  1.4492400000000001  3.2809300000000001  8.2308400000000006
  1.6159300000000001  9.3143899999999995 12.2238600000000002
