Al Ni Al Ni Al Ni Al  H 
 1.0000000000000000
     5.0182576448734597    0.0000000000000000    0.0000000000000000
     1.6454708835551251    4.7408156645071680    0.0000000000000000
     0.0000000000000000    0.0000000000000000   24.0887182953160597
 Al  Ni  Al  Ni  Al  Ni  Al  H  
   1   2   2   2   2   2   1   1
Cartesian
  0.0000000000000000  0.0000000000000000  9.9999992005168075
  0.8227354417775625  2.3704078322535840  9.9999992005168075
  2.5091288224367299  0.0000000000000000  9.9999992005168075
  3.3318642642142926  2.3704078322535840  9.9999992005168075
  5.0182572215022221  3.5701683138394849 12.0443591476580298
  4.1955217797246593  1.1997604815859011 12.0443591476580298
  2.5091283990654922  3.5701683138394849 12.0443591476580298
  1.6863929572879301  1.1997604815859011 12.0443591476580298
  3.4224481739798520  2.4347979035027540 14.1333337617765711
  2.4841517200273842  0.0812912687257648 14.0396110869321546
  0.8923415933936458  2.3202425736649519 14.0379534217826620
 -0.0292696689173972 -0.0205942596935361 14.1166392682717490
  1.9788586124123029  1.4078387259026244 15.0059761271555736
