 W  N  H 
 1.0000000000000000
     5.9606300000000001    0.0000000000000000    0.0000000000000000
     0.0000000000000000    8.0680399999999999    0.0000000000000000
     0.0000000000000000    0.0000000000000000   34.8271000000000015
 W   N   H  
   8  16   1
Cartesian
  2.2358899999999999  1.0092300000000001  4.6706599999999998
  5.2162100000000002  5.0432499999999996  1.1336200000000001
  2.2358899999999999  3.0247899999999999  1.7685200000000001
  5.2162100000000002  7.0588100000000003  4.0361099999999999
  2.4207900000000002  1.0087999999999999 10.6265699999999992
  5.2641400000000003  5.1092800000000000  6.9879300000000004
  2.2833600000000001  3.0325400000000000  7.6149300000000002
  5.4024700000000001  7.0395099999999999  9.8812499999999996
  0.5719800000000000  0.2337300000000000  4.4209500000000004
  5.3879900000000003  5.6030899999999999  5.1725199999999996
  2.4076800000000000  1.5690700000000000  0.6321099999999999
  3.5522999999999998  4.2677500000000004  1.3833299999999999
  5.3879900000000003  6.4989699999999999  2.2703799999999998
  0.5719800000000000  3.8002899999999999  1.5188100000000000
  3.5522999999999998  7.8343100000000003  4.2858200000000002
  2.4076800000000000  2.4649500000000000  3.5342500000000001
  1.0218900000000000  7.9379200000000001 10.4918800000000001
  5.3732899999999999  5.5133299999999998 10.7383199999999999
  2.3902000000000001  1.6087899999999999  6.4230499999999999
  3.6597000000000000  4.2229200000000002  7.2983399999999996
  5.3650599999999997  6.6292000000000000  8.0175500000000000
  0.6857700000000000  3.9387599999999998  7.3841900000000003
  3.8871500000000001  8.0188799999999993 10.5327300000000008
  2.3979800000000000  2.3670300000000002  9.3547600000000006
  2.3597000000000001  1.6840800000000000 12.2091700000000003
