Nb  N  H 
 1.0000000000000000
     5.3445200000000002    0.0000000000000000    0.0000000000000000
     0.0000000000000000    9.7873800000000006    0.0000000000000000
     0.0000000000000000    0.0000000000000000   27.5406000000000013
 Nb  N   H  
  16  20   1
Cartesian
  1.8292700000000000  4.0122400000000003  0.5543900000000000
  0.9656500000000000  8.9059299999999997  2.5216200000000000
  2.9016500000000001  2.9958200000000001  3.3715199999999999
  3.7652700000000001  7.8895099999999996  1.4043000000000001
  0.8986300000000000  6.7915599999999996  0.1459700000000000
  0.0350100000000000  1.8978699999999999  2.1131899999999999
  1.9710099999999999  5.7751400000000004  2.9630899999999998
  2.8346300000000002  0.8814500000000000  0.9958700000000000
  0.1195900000000000  4.0169699999999997  4.4626500000000000
  4.6846500000000004  8.9408100000000008  6.3275300000000003
  0.8895100000000000  2.9901399999999998  7.1442800000000002
  2.1179700000000001  7.8414200000000003  5.3879900000000003
  4.5225000000000000  6.7610900000000003  4.0703300000000002
  3.7554400000000001  1.8859999999999999  5.9190600000000000
  0.1928100000000000  5.8153699999999997  6.8190799999999996
  1.1429100000000001  0.8669000000000000  4.9540300000000004
  3.7087800000000000  4.8936900000000003  3.7259699999999998
  4.5724000000000000  0.0000000000000000  1.7587400000000000
  2.7867400000000000  5.9306599999999996  0.9749400000000000
  1.9231199999999999  1.0369699999999999  2.9418899999999999
  1.0410100000000000  1.9501400000000000  0.2084800000000000
  0.1773800000000000  6.8438299999999996  2.1757100000000000
  2.7592699999999999  7.8372400000000004  3.3090000000000002
  3.6228899999999999  2.9435500000000001  1.3417800000000000
  1.0135300000000000  3.8567200000000001  2.5428199999999999
  1.8771599999999999  8.7504100000000005  0.5756000000000000
  1.2311900000000000  4.6768500000000000  8.0289900000000003
  2.8439600000000000  9.7689599999999999  5.8030799999999996
  1.0699900000000000  5.9209800000000001  4.9831799999999999
  0.1405000000000000  1.0209200000000000  6.9943099999999996
  4.6567499999999997  1.9468300000000001  4.1301899999999998
  3.8119600000000000  6.9110699999999996  6.1581000000000001
  0.9037300000000000  7.7702299999999997  7.2808599999999997
  1.9015000000000000  2.9097800000000000  5.3584300000000002
  4.5764500000000004  3.8179599999999998  6.4217899999999997
  0.1589800000000000  8.7483000000000004  4.5230699999999997
  1.4467500000000000  8.0252999999999997  8.1072699999999998
