Nb  N Nb  N  H 
 1.0000000000000000
     5.3445200000000002    0.0000000000000000    0.0000000000000000
     0.0000000000000000    9.7873800000000006    0.0000000000000000
     0.0000000000000000    0.0000000000000000   27.5406000000000013
 Nb  N   Nb  N   H  
   8  10   8  10   1
Cartesian
  1.8292688604000003  4.0122385572000008  0.5543922780000000
  0.9656478736000000  8.9059285572000011  2.5216173360000003
  2.9016467983999998  2.9958191442000000  3.3715202520000003
  3.7652677851999998  7.8895091441999998  1.4042951940000001
  0.8986275928000000  6.7915608558000011  0.1459651800000000
  0.0350066060000000  1.8978708558000001  2.1131902380000005
  1.9710055308000001  5.7751414428000007  2.9630931540000001
  2.8346265175999998  0.8814514428000001  0.9958680960000000
  3.7087762088000003  4.8936900000000003  3.7259677739999999
  4.5723971955999998  0.0000000000000000  1.7587427160000000
  2.7867396184000000  5.9306629110000006  0.9749372400000000
  1.9231186316000000  1.0369729110000001  2.9418868920000003
  1.0410056056000001  1.9501354650000002  0.2084823420000000
  0.1773846188000000  6.8438254650000010  2.1757074000000003
  2.7592687855999998  7.8372445350000000  3.3090030900000005
  3.6228897723999998  2.9435545350000005  1.3417780320000001
  1.0135347728000001  3.8567170890000004  2.5428235980000000
  1.8771557595999999  8.7504070890000012  0.5755985400000000
  0.1251507145784557  4.0129168296868949  4.4569872780634583
  4.7261754376643026  8.9104883733711002  6.3604008522537701
  0.8505166355592009  2.9600190489604397  7.1403441289157215
  2.1093413181904306  7.8802418522811806  5.4654406959697104
  4.5298462958284009  6.7643919299855959  4.0385573950875164
  3.7519293413544452  1.8770844761509202  5.9104403575554523
  0.1594145357477838  5.9477749971207450  6.7680052733709006
  1.1274067212304748  0.8730290450859651  4.9494070920758944
  1.2247136924413102  4.6742788177818859  8.1341305902248866
  2.8687251106811211 -0.0019755139189916  5.8124924010904984
  1.0712768382769622  5.9270554223262284  4.9716705482474151
  0.1586794610693780  1.0293524275273129  6.9985943222202760
  4.6517225671134463  1.9403177550182213  4.1287603582900303
  3.7996421250025656  6.9024422954907676  6.1666921257549072
  0.9583179785216227  7.7244196738412922  7.1812274981616575
  1.9025727195415623  2.9151184146871221  5.3809161489405701
  4.5941629756164204  3.8186759680854228  6.4424279468750436
  0.1697715598742631  8.7336511192803812  4.5293931920214545
  1.9464707549175198  5.0964912951933874  8.7211216839819468
