Nb  N  H 
 1.0000000000000000
     5.3445200000000002    0.0000000000000000    0.0000000000000000
    -1.7272608330000001   10.5485613300000001    0.0000000000000000
     0.0000000000000000    0.0000000000000000   29.2037000000000013
 Nb  N   H  
  16  20   1
Cartesian
  0.8071199999999999  2.9118200000000001  0.7885000000000000
  2.6014100000000000  0.3687200000000000  1.4461700000000000
  3.6067700000000000  3.4381499999999998  2.2042999999999999
  0.0564800000000000  0.8950500000000000  2.8619599999999998
  2.5419200000000002  1.4361699999999999  4.3655299999999997
  3.4453999999999998  4.1295999999999999  5.1943700000000002
 -0.2350400000000000  1.9075299999999999  5.7717299999999998
  0.8829800000000000  4.6747699999999996  6.3129099999999996
 -0.0565100000000000  8.1861099999999993  0.7885000000000000
  1.7377800000000001  5.6430100000000003  1.4461700000000000
  2.7431399999999999  8.7124299999999995  2.2042999999999999
 -0.8071500000000000  6.1693300000000004  2.8619599999999998
  1.7150600000000000  6.7151399999999999  4.3419499999999998
  2.7187700000000001  9.4300800000000002  5.1424099999999999
 -1.1227100000000001  7.0732999999999997  5.8771100000000001
  0.1249700000000000  9.8351100000000002  6.2749100000000002
 -0.0000100000000000  4.5405800000000003  1.8252299999999999
  4.3949900000000000  1.6539600000000001  1.1141200000000000
  2.6952099999999999  4.0197399999999996  0.3405200000000000
  2.6492800000000001  5.0614100000000004  3.3099500000000002
  1.8131299999999999  2.1529099999999999  2.5363400000000000
  1.6800700000000000  2.9669400000000001  5.5416999999999996
  0.8722200000000000  0.1081200000000000  4.7534000000000001
  4.4364299999999997  2.5427800000000000  3.9776799999999999
  4.5327400000000004  3.5417299999999998  6.8120799999999999
  3.5401400000000001  0.6236800000000000  6.2036800000000003
 -0.8636500000000000  9.8148599999999995  1.8252299999999999
  3.5313599999999998  6.9282399999999997  1.1141200000000000
  1.8315800000000000  9.2940199999999997  0.3405200000000000
  1.7856500000000000 10.3356899999999996  3.3099500000000002
  0.9495000000000000  7.4271900000000004  2.5363400000000000
  0.8962500000000000  8.2854200000000002  5.4632600000000000
 -0.0378100000000000  5.4060699999999997  4.7372600000000000
  3.6186199999999999  7.8042299999999996  3.9985400000000002
  3.7904499999999999  8.8215299999999992  6.8463799999999999
  2.6260699999999999  5.8997400000000004  6.2360899999999999
 -0.0220200000000000  6.1885199999999996  7.2788800000000000
