Nb  N Nb  N  H 
 1.0000000000000000
     5.3445200000000002    0.0000000000000000    0.0000000000000000
     0.0000000000000000    9.7873800000000006    0.0000000000000000
     0.0000000000000000    0.0000000000000000   27.5406000000000013
 Nb  N   Nb  N   H  
   8  10   8  10   1
Cartesian
  1.8292688604000003  4.0122385572000008  0.5543922780000000
  0.9656478736000000  8.9059285572000011  2.5216173360000003
  2.9016467983999998  2.9958191442000000  3.3715202520000003
  3.7652677851999998  7.8895091441999998  1.4042951940000001
  0.8986275928000000  6.7915608558000011  0.1459651800000000
  0.0350066060000000  1.8978708558000001  2.1131902380000005
  1.9710055308000001  5.7751414428000007  2.9630931540000001
  2.8346265175999998  0.8814514428000001  0.9958680960000000
  3.7087762088000003  4.8936900000000003  3.7259677739999999
  4.5723971955999998  0.0000000000000000  1.7587427160000000
  2.7867396184000000  5.9306629110000006  0.9749372400000000
  1.9231186316000000  1.0369729110000001  2.9418868920000003
  1.0410056056000001  1.9501354650000002  0.2084823420000000
  0.1773846188000000  6.8438254650000010  2.1757074000000003
  2.7592687855999998  7.8372445350000000  3.3090030900000005
  3.6228897723999998  2.9435545350000005  1.3417780320000001
  1.0135347728000001  3.8567170890000004  2.5428235980000000
  1.8771557595999999  8.7504070890000012  0.5755985400000000
  0.1302647748976217  4.0495927798660158  4.4391483280122994
  4.6666207675130700  8.9147144207269573  6.3317039851603649
  0.8871731450871502  2.9577506159836315  7.1224960648925473
  2.0089734445845915  7.7149884053875928  5.5124201991720092
  4.5244473961124259  6.7805618888034109  4.0440550926340109
  3.7615209037891155  1.8596225249791853  5.9000950692473761
  0.1460926404946872  5.8320657291933466  7.1454141427365947
  1.1919560168674539  0.8370372399989279  4.9701198652362599
  1.2421514383035788  4.5913890835808404  8.1081049746207565
  2.8386345162646229 -0.0562961443343259  5.8044828425071495
  1.0049450144533585  5.9187226164452502  4.9797198238134905
  0.1473280650585154  0.9939503148359311  6.9604270204447651
  4.6540074733995036  1.9406551846406870  4.1314970194373135
  3.7682379574460589  6.9164159998306385  6.0445890075620561
  0.8966808744812046  7.7167296446500853  7.1663025417269370
  1.8912184524753000  2.9118138526783528  5.3480223330517642
  4.6216863331649520  3.8148382501803946  6.4079867342014492
  0.1420991620401177  8.7574280743996482  4.5223612416395564
 -1.0363840506531319  6.1629448940944034  8.4565419884964310
