Nb  N Nb  N Nb  N Nb  N  H 
 1.0000000000000000
     5.3445200000000002    0.0000000000000000    0.0000000000000000
    -1.7272608330669896   10.5485613301602754    0.0000000000000000
     0.0000000000000000    0.0000000000000000   29.2037000000000013
 Nb  N   Nb  N   Nb  N   Nb  N   H  
   4   5   4   5   4   5   4   5   1
Cartesian
  0.8071209592401881  2.9118248695774427  0.7884999000000000
  2.6014083383801432  0.3687249612957524  1.4461672240000001
  3.6067662991743115  3.4381453371457891  2.2042952760000003
  0.0564802331142659  0.8950454288640993  2.8619626000000000
 -0.0000146120895204  4.5405754817608397  1.8252312500000001
  4.3949935428792610  1.6539616737624803  1.1141211550000001
  2.6952117883431623  4.0197402660841766  0.3405151420000000
  2.6492789874777967  5.0614106974375037  3.3099473580000001
  1.8131276494751929  2.1529086246790614  2.5363413449999999
  2.5666378296180707  1.4557038702306118  4.3551728358837911
  3.5238955132770884  4.1832880447322207  5.1109154530411951
 -0.2550181467776779  1.8873214878794864  5.7870057167949263
  0.9953602180346480  4.6504243327972272  6.2785884366709235
  1.7212830028883392  2.9981407154797162  5.5302349731011047
  0.8476169993561266  0.1576721140738144  4.7578569205177415
  4.4614824685316385  2.5398201425824793  3.9597301700952747
  4.6093744968785675  3.5668275628281325  6.9848065322457655
  3.5138128578648740  0.6694275369598023  6.2642354526823798
 -0.0565094572933067  8.1861055346575800  0.7884999000000000
  1.7377779218466483  5.6430056263758903  1.4461672240000001
  2.7431358826408165  8.7124260022259268  2.2042952760000003
 -0.8071501834192288  6.1693260939442371  2.8619626000000000
 -0.8636450286230152  9.8148561468409774  1.8252312500000001
  3.5313631263457661  6.9282423388426180  1.1141211550000001
  1.8315813718096674  9.2940209311643152  0.3405151420000000
  1.7856485709443017 10.3356913625176414  3.3099473580000001
  0.9494972329416981  7.4271892897591991  2.5363413449999999
  1.7170742137784349  6.7469993353033342  4.3546578234419595
  2.6694978018848663  9.4698541920412822  5.1670790916222549
 -1.1312255862904403  7.1816745958977339  5.8100850363409764
  0.1110242588591194  9.8884971467415692  6.2819681144936039
  0.8499137135337309  8.2787450593450664  5.5064706081431369
 -0.0026214611497527  5.4195846957829179  4.7627193002937558
  3.6079851300511492  7.8265128960294588  3.9666065622296944
  3.7597254476914834  8.8493184876470714  6.8613575005789400
  2.6452142342814051  5.9009162615722284  6.2428955742098715
  4.0890879598178493  3.6119156377772064  7.8616554785498947
