La Zr La Zr La Zr  H 
 1.0000000000000000
     6.7956695190915299    0.0000000000000000    0.0000000000000000
    -3.3978347595457650    6.0660455707247554    0.0000000000000000
     0.0000000000000000    0.0000000000000000   25.6295171862784983
 La  Zr  La  Zr  La  Zr  H  
   2   2   2   2   2   2   1
Cartesian
  0.0000000000000000  0.0000000000000000  9.9999992923310419
  3.3978346595457718  0.0000000000000000  9.9999992923310419
  1.6989172797728895  3.0330225853623913  9.9999992923310419
 -1.6989172797728895  3.0330225853623913  9.9999992923310419
  3.3978346595457718  1.9032631653119645 12.8147584931392569
  0.0000000000000000  1.9032631653119645 12.8147584931392569
 -1.6989172797728895  4.9362856506743631 12.8147584931392569
  1.6989172797728895  4.9362856506743631 12.8147584931392569
 -0.0001049999925695  3.8790858254891183 15.7952149822215873
  3.3985844594927106  3.8785808255248555 15.7952697822177104
  5.0975486392622811  0.6036440572819809 15.4428204071594610
  1.6987590797840848  0.6684695526944815 15.3428744142323286
  1.6994316797364868  5.2301199298806225 16.8991188041017359
