Al Pd Al Pd Al Pd  H 
 1.0000000000000000
     5.3504206213673147    0.0000000000000000    0.0000000000000000
     1.7806928739858841    5.0454076429521377    0.0000000000000000
     0.0000000000000000    0.0000000000000000   24.3677442755702600
 Al  Pd  Al  Pd  Al  Pd  H  
   2   2   2   2   2   2   1
Cartesian
  0.0000000000000000  0.0000000000000000  9.9999992923310419
  3.5655566476766061  2.5227037214760761  9.9999992923310419
  2.6752104106836505  0.0000000000000000  9.9999992923310419
  0.8903462369929562  2.5227037214760761  9.9999992923310419
  5.3504207213673078  3.7855313321096800 12.1838721377851300
  1.7848641736906941  1.2628276106336038 12.1838721377851300
  2.6752104106836505  3.7855313321096800 12.1838721377851300
  4.4600744843743518  1.2628276106336038 12.1838721377851300
  3.5693040474114146  2.5253635212878502 14.3910297815914223
  0.0037557997342137  0.0026490998125314 14.3910300815914010
  0.8944151367050127  2.5255816212724160 14.4126777800594610
  2.6787222104351307  0.0024869998240027 14.2459708918567927
  0.8943776367076666  2.5255568212741712 16.0279060657547632
