Cu  N  H 
 1.0000000000000000
    10.7896179229999998    0.0000000000000000    0.0000000000000000
     0.0000000000000000    7.6294120000000003    0.0000000000000000
     0.0000000000000000    0.0000000000000000   27.4409156830000001
 Cu  N   H  
  48  16   1
Cartesian
  0.0000000000000000  1.9073500000000001  9.0000000000000000
  4.0461099999999997  0.0000000000000000 10.3486999999999991
  1.3487000000000000  0.0000000000000000 10.3486999999999991
  2.6974000000000000  1.9073500000000001 11.6974000000000000
  1.3487000000000000  0.0000000000000000 13.0461100000000005
  4.0461099999999997  0.0000000000000000 13.0461100000000005
  0.0063600000000000  1.9073500000000001 14.3770399999999992
  3.9807199999999998 -0.1035700000000000 15.6573300000000000
  1.2697900000000000 -0.0087000000000000 15.8062799999999992
  3.0396999999999998  1.9073500000000001 16.8509600000000006
  1.3613100000000000  0.7016100000000000 18.2594799999999999
  4.2892500000000000  0.0035600000000000 18.1914400000000001
  0.0000000000000000  5.7220599999999999  9.0000000000000000
  4.0461099999999997  3.8147099999999998 10.3486999999999991
  1.3487000000000000  3.8147099999999998 10.3486999999999991
  2.6974000000000000  5.7220599999999999 11.6974000000000000
  1.3487000000000000  3.8147099999999998 13.0461100000000005
  4.0461099999999997  3.8147099999999998 13.0461100000000005
  0.0466700000000000  5.7220599999999999 14.3365799999999997
  3.9807199999999998  3.9182700000000001 15.6573300000000000
  1.2697900000000000  3.8234100000000000 15.8062799999999992
  2.6765500000000002  5.7220599999999999 17.1235299999999988
  1.3613100000000000  3.1131000000000002 18.2594799999999999
  4.2892500000000000  3.8111500000000000 18.1914400000000001
  5.3948099999999997  1.9073500000000001  9.0000000000000000
  9.4409200000000002  0.0000000000000000 10.3486999999999991
  6.7435099999999997  0.0000000000000000 10.3486999999999991
  8.0922099999999997  1.9073500000000001 11.6974000000000000
  6.7435099999999997  0.0000000000000000 13.0461100000000005
  9.4409200000000002  0.0000000000000000 13.0461100000000005
  5.3866899999999998  1.9073500000000001 14.4407499999999995
  9.3628599999999995 -0.0847900000000000 15.6297200000000007
  6.7695200000000000 -0.0556200000000000 15.7416900000000002
  7.8882500000000002  1.9073500000000001 16.9581300000000006
  6.5990700000000002 -0.0275500000000000 18.2671600000000005
  9.8068500000000007  0.6729300000000000 17.9528399999999984
  5.3948099999999997  5.7220599999999999  9.0000000000000000
  9.4409200000000002  3.8147099999999998 10.3486999999999991
  6.7435099999999997  3.8147099999999998 10.3486999999999991
  8.0922099999999997  5.7220599999999999 11.6974000000000000
  6.7435099999999997  3.8147099999999998 13.0461100000000005
  9.4409200000000002  3.8147099999999998 13.0461100000000005
  5.4183300000000001  5.7220599999999999 14.3426899999999993
  9.3628599999999995  3.8994900000000001 15.6297200000000007
  6.7695200000000000  3.8703300000000000 15.7416900000000002
  8.1856000000000009  5.7220599999999999 17.1564699999999988
  6.5990700000000002  3.8422600000000000 18.2671600000000005
  9.8068500000000007  3.1417799999999998 17.9528399999999984
  0.0000000000000000  0.0000000000000000  9.0000000000000000
  2.6974000000000000  0.0000000000000000 11.6974000000000000
  0.0062900000000000 -0.0003100000000000 14.3785100000000003
  2.6825100000000002 -0.0296600000000000 17.0935999999999986
  0.0000000000000000  3.8147099999999998  9.0000000000000000
  2.6974000000000000  3.8147099999999998 11.6974000000000000
  0.0062900000000000  3.8150100000000000 14.3785100000000003
  2.6825100000000002  3.8443700000000001 17.0935999999999986
  5.3948099999999997  0.0000000000000000  9.0000000000000000
  8.0922099999999997  0.0000000000000000 11.6974000000000000
  5.4047499999999999  0.0000100000000000 14.3945399999999992
  8.1703299999999999 -0.0165600000000000 17.1280199999999994
  5.3948099999999997  3.8147099999999998  9.0000000000000000
  8.0922099999999997  3.8147099999999998 11.6974000000000000
  5.4047499999999999  3.8147000000000002 14.3945399999999992
  8.1703299999999999  3.8312700000000000 17.1280199999999994
  0.1497300000000000  1.9073500000000001 18.7430599999999998
