Zr  N  H 
 1.0000000000000000
     6.6186199999999999    0.0000000000000000    0.0000000000000000
     0.0000000000000000    7.6751500000000004    0.0000000000000000
     0.0000000000000000    0.0000000000000000   38.3757000000000019
 Zr  N   H  
  32  16   1
Cartesian
  0.0000000000000000  3.8375800000000000  7.3201599999999996
  0.0000000000000000  0.0000000000000000  3.4825900000000001
  0.0000000000000000  3.8375800000000000  4.1925499999999998
  0.0000000000000000  0.0000000000000000  0.3549800000000000
  1.6546500000000000  1.5638099999999999  5.7563500000000003
  1.6546500000000000  5.4013900000000001  1.9187799999999999
  1.6546500000000000  6.1113400000000002  5.7563500000000003
  1.6546500000000000  2.2737599999999998  1.9187799999999999
 -0.0466000000000000  3.8375800000000000 14.8574000000000002
 -0.0033400000000000  0.0000000000000000 11.1360399999999995
  0.0064600000000000  3.8375800000000000 11.8482900000000004
 -0.0011000000000000  0.0000000000000000  8.0283099999999994
  1.6546500000000000  1.5421100000000001 13.4187499999999993
  1.6546500000000000  5.4083399999999999  9.5912000000000006
  1.6546500000000000  6.1330400000000003 13.4187499999999993
  1.6546500000000000  2.2668100000000000  9.5912000000000006
  3.3093100000000000  3.8375800000000000  7.3201599999999996
  3.3093100000000000  0.0000000000000000  3.4825900000000001
  3.3093100000000000  3.8375800000000000  4.1925499999999998
  3.3093100000000000  0.0000000000000000  0.3549800000000000
  4.9639600000000002  1.5638099999999999  5.7563500000000003
  4.9639600000000002  5.4013900000000001  1.9187799999999999
  4.9639600000000002  6.1113400000000002  5.7563500000000003
  4.9639600000000002  2.2737599999999998  1.9187799999999999
  3.3559100000000002  3.8375800000000000 14.8574000000000002
  3.3126500000000001  0.0000000000000000 11.1360399999999995
  3.3028499999999998  3.8375800000000000 11.8482900000000004
  3.3104100000000001  0.0000000000000000  8.0283099999999994
  4.9639600000000002  1.5276300000000000 13.3774999999999995
  4.9639600000000002  5.4062799999999998  9.5915199999999992
  4.9639600000000002  6.1475200000000001 13.3774999999999995
  4.9639600000000002  2.2688700000000002  9.5915199999999992
  0.0000000000000000  3.8375800000000000  1.9187799999999999
  0.0000000000000000  0.0000000000000000  5.7563500000000003
  1.6546500000000000  3.8375800000000000  5.7563500000000003
  1.6546500000000000  0.0000000000000000  1.9187799999999999
 -0.0013000000000000  3.8375800000000000  9.5900900000000000
  0.0022000000000000  0.0000000000000000 13.4616399999999992
  1.6546500000000000  3.8375800000000000 13.3979400000000002
  1.6546500000000000  0.0000000000000000  9.5890199999999997
  3.3093100000000000  3.8375800000000000  1.9187799999999999
  3.3093100000000000  0.0000000000000000  5.7563500000000003
  4.9639600000000002  3.8375800000000000  5.7563500000000003
  4.9639600000000002  0.0000000000000000  1.9187799999999999
  3.3106100000000001  3.8375800000000000  9.5900900000000000
  3.3071100000000002  0.0000000000000000 13.4616399999999992
  4.9639600000000002  3.8375800000000000 13.4018899999999999
  4.9639600000000002  0.0000000000000000  9.5830400000000004
  4.9639600000000002  3.8375800000000000 16.1666899999999991
