 W  N  H 
 1.0000000000000000
     5.9606300000000001    0.0000000000000000    0.0000000000000000
     0.0000000000000000    8.0680399999999999    0.0000000000000000
     0.0000000000000000    0.0000000000000000   34.8271000000000015
 W   N   H  
   8  16   1
Cartesian
  2.2358899999999999  1.0092300000000001  4.6706599999999998
  5.2162100000000002  5.0432499999999996  1.1336200000000001
  2.2358899999999999  3.0247899999999999  1.7685200000000001
  5.2162100000000002  7.0588100000000003  4.0361099999999999
  2.3471799999999998  0.9321100000000000 10.6395300000000006
  5.3172499999999996  5.1179500000000004  6.9933500000000004
  2.3357700000000001  3.0168400000000002  7.6431600000000000
  5.3218399999999999  6.9845600000000001  9.8595299999999995
  0.5719800000000000  0.2337300000000000  4.4209500000000004
  5.3879900000000003  5.6030899999999999  5.1725199999999996
  2.4076800000000000  1.5690700000000000  0.6321099999999999
  3.5522999999999998  4.2677500000000004  1.3833299999999999
  5.3879900000000003  6.4989699999999999  2.2703799999999998
  0.5719800000000000  3.8002899999999999  1.5188100000000000
  3.5522999999999998  7.8343100000000003  4.2858200000000002
  2.4076800000000000  2.4649500000000000  3.5342500000000001
  0.9348900000000000  7.8797600000000001 10.4937100000000001
  5.3067799999999998  5.4287500000000000 10.6551700000000000
  2.3693599999999999  1.6191000000000000  6.4171300000000002
  3.8025000000000002  4.0980600000000003  7.3411499999999998
  5.2910300000000001  6.6737599999999997  7.9716100000000001
  0.8284200000000000  4.0612599999999999  7.4043599999999996
  3.7974800000000002  7.9201499999999996 10.5538600000000002
  2.3563600000000000  2.2910599999999999  9.3648900000000008
  2.2959200000000002  1.5880000000000001 12.2311899999999998
