Pd  N  H 
 1.0000000000000000
     4.5745300000000002    0.0000000000000000    0.0000000000000000
    -7.3861335070000003    5.3991046200000001    0.0000000000000000
     0.0000000000000000    0.0000000000000000   40.9228000000000023
 Pd  N   H  
   8  16   1
Cartesian
  1.6542200000000000  1.2417700000000000  3.3024700000000000
 -1.0813600000000001  2.1349900000000002  7.3947500000000002
 -0.1857500000000000  0.5619000000000000 11.3422199999999993
  1.5949000000000000  1.2931900000000001 15.3180800000000001
 -2.0388500000000001  3.9413200000000002  3.3024700000000000
 -4.7744299999999997  4.8345500000000001  7.3947500000000002
 -3.8182299999999998  3.2798200000000000 11.4018499999999996
 -1.5930400000000000  4.1022900000000000 15.6961399999999998
  2.7099099999999998  0.8970600000000000  1.7232600000000000
  3.3340299999999998  0.6932700000000001  0.7898100000000000
 -0.0256700000000000  1.7902899999999999  5.8155400000000004
  0.5984500000000000  1.5865000000000000  4.8820899999999998
 -2.9281700000000002  2.7551100000000002  9.7804800000000007
 -2.3220600000000000  2.5405400000000000  8.8407000000000000
  2.3652500000000001  1.3169000000000000 13.5508400000000009
  3.0355300000000001  0.9722000000000000 12.6920199999999994
 -0.9831600000000000  3.5966100000000001  1.7232600000000000
 -0.3590400000000000  3.3928199999999999  0.7898100000000000
 -3.7187399999999999  4.4898400000000001  5.8155400000000004
 -3.0946199999999999  4.2860500000000004  4.8820899999999998
 -6.4373699999999996  5.3982599999999996  9.9045699999999997
 -5.7230999999999996  5.1430899999999999  9.0566899999999997
 -0.6242700000000000  3.4662999999999999 14.1749899999999993
 -4.6839300000000001  3.4604699999999999 13.1554699999999993
  1.0352699999999999  0.2754100000000000 16.6171599999999984
