Pd  N Pd  N Pd  N Pd  N  H 
 1.0000000000000000
     4.5745300000000002    0.0000000000000000    0.0000000000000000
    -3.7083015434813658   10.8911949161978434    0.0000000000000000
     0.0000000000000000    0.0000000000000000   28.4010999999999996
 Pd  N   Pd  N   Pd  N   Pd  N   H  
   2   4   2   4   2   4   2   4   1
Cartesian
  0.9738274714415057  1.9627566918225943  1.6373234150000000
  1.8552748025359980  3.7437937964684278  3.6657299769999998
 -0.7060526703726141  4.2130953854073923  0.3913671580000000
  2.0295454324625610  0.5485350319543044  2.4200577310000000
 -0.0818904895795496  3.3769783516908842  0.8543050879999999
  0.7995568415149428  5.1580154563367175  2.8829956609999998
  0.1554566162163094  0.2442617859439651  5.6408452368359114
  0.6730997893867059  2.9976594076738516  6.1525839083447034
  2.7100683556836143  2.3475183018559136  4.7557519518427123
 -0.6320351227727756  5.3113156674890813  7.4163143054260479
  3.6837860021855380  1.8679816854090794  5.1893450916490673
  0.2153407497259293  4.5020429966411717  7.3945910134130806
 -0.8803233002991772  7.4083541499215162  1.6373234150000000
  0.0011240307953151  9.1893912545673491  3.6657299769999998
 -2.5602034421132971  9.6586928435063140  0.3913671580000000
  0.1753946607218781  5.9941324900532260  2.4200577310000000
 -1.9360412613202325  8.8225758097898055  0.8543050879999999
 -1.0545939302257401 10.6036129144356401  2.8829956609999998
 -2.2310700458755592  5.3885090257540460  5.9116966128368373
 -1.0271783525421021  7.2671831490344889  7.5146987068430118
  1.1390830551338798  7.9266323503176066  4.6040273303001955
 -2.3627564349570682  9.9152759849110144  6.6233801614607719
  1.7976517145884314  7.0816292934172873  4.9934784102485912
 -1.8422445563257281  9.0398134913012065  7.1287019374517913
  0.2179457783660073  7.7316534507527717  8.3967995971079912
