Re  N  H 
 1.0000000000000000
     9.5357500000000002    0.0000000000000000    0.0000000000000000
     0.0000000000000000    5.0288700000000004    0.0000000000000000
     0.0000000000000000    0.0000000000000000   28.1466999999999992
 Re  N   H  
  16  32   1
Cartesian
  3.7319100000000001  5.0037300000000000  4.1733099999999999
  3.7319100000000001  1.5833400000000000  1.8278500000000000
  8.4997900000000008  4.2253100000000003  0.1911200000000000
  8.4997900000000008  2.6168200000000001  2.5365799999999998
  5.8038400000000001  1.7108699999999999  0.1911200000000000
  5.8038400000000001  0.1023900000000000  2.5365799999999998
  1.0359600000000000  2.4892900000000000  4.1733099999999999
  1.0359600000000000  4.0977699999999997  1.8278500000000000
  3.5983000000000001  1.7663000000000000  8.7735800000000008
  3.7731599999999998  3.2425199999999998  6.5823900000000002
  8.4948099999999993  1.0220400000000001  4.8073699999999997
  8.4520599999999995  4.1694899999999997  7.3974500000000001
  5.8041900000000002  3.5411800000000002  4.8041600000000004
  5.7991900000000003  1.7648800000000000  7.3905300000000000
  1.0684400000000001  4.0851300000000004  8.7351100000000006
  0.9776500000000000  0.6323000000000000  6.5967099999999999
  3.1124700000000001  3.6075599999999999  1.4917800000000001
  3.1124700000000001  1.9990800000000000  3.8372400000000000
  7.8803400000000003  2.2010900000000002  0.5271900000000000
  7.8803400000000003  0.5926000000000000  2.8726500000000001
  6.4232800000000001  3.1070400000000000  2.8726500000000001
  6.4232800000000001  4.7155199999999997  0.5271900000000000
  1.6554100000000000  4.5135100000000001  3.8372400000000000
  1.6554100000000000  1.0931299999999999  1.4917800000000001
  3.8614999999999999  2.9656799999999999  4.5000900000000001
  3.8614999999999999  4.5741600000000000  2.1546300000000000
  8.6293799999999994  3.0463900000000002  4.5555399999999997
  8.6293799999999994  4.6548699999999998  2.2098000000000000
  5.6742499999999998  0.5319500000000000  4.5555399999999997
  5.6742499999999998  2.1404399999999999  2.2098000000000000
  0.9063700000000000  0.4512400000000000  4.5000900000000001
  0.9063700000000000  2.0597200000000000  2.1546300000000000
  3.1254000000000000  0.2395000000000000  6.2041199999999996
  3.2640400000000001  3.8741699999999999  8.6684400000000004
  7.8967299999999998  4.0305400000000002  5.2163399999999998
  7.8656100000000002  2.2601100000000001  7.4677300000000004
  6.4321000000000002  4.7962899999999999  7.5133700000000001
  6.4108700000000001  1.5122899999999999  5.1971400000000001
  1.5819200000000000  1.0407800000000000  8.5416399999999992
  1.6340800000000000  2.6561699999999999  6.1849299999999996
  3.9412199999999999  4.8659200000000000  9.2997099999999993
  3.8551000000000002  1.2075100000000001  6.8809300000000002
  8.8696199999999994  4.3878599999999999  9.3284800000000008
  8.5852900000000005  1.2348600000000001  6.9347000000000003
  5.4860600000000002  1.9999499999999999  9.2408000000000001
  5.7095500000000001  3.8184800000000001  6.9176099999999998
  1.5826899999999999  2.1567799999999999  9.2797400000000003
  0.8731200000000000  3.6137600000000001  6.8311200000000003
  4.8960699999999999  4.5864000000000003  9.5655999999999999
