Ir  N Ir  N  H 
 1.0000000000000000
     5.9138299999999999    0.0000000000000000    0.0000000000000000
     0.0000000000000000    9.6572399999999998    0.0000000000000000
     0.0000000000000000    0.0000000000000000   33.4536999999999978
 Ir  N   Ir  N   H  
   8  24   8  24   1
Cartesian
  4.8670820899999994  4.8286199999999999  5.4027725499999999
  0.9245090439000000  0.0000000000000000  2.6150757290000000
  4.8670820899999994  7.2429299999999994  1.2210600500000000
  2.8958251361000000  2.4143100000000000  4.0087568710000001
  4.8670820899999994  2.4143100000000000  1.2210600500000000
  2.8958251361000000  7.2429299999999994  4.0087568710000001
  0.9245090439000000  4.8286199999999999  2.6150757290000000
  4.8670820899999994  0.0000000000000000  5.4027725499999999
  5.4585242282999999  5.8716984924000002  3.7300875499999999
  1.5159511822000000  1.0430784923999998  0.9423907290000000
  2.3043829977999999  3.7855415076000001  1.4997293709999999
  0.3330669056000000  8.6141615075999987  4.2874261919999999
  0.7905607943999999  1.9315445724000000  0.4292109709999999
  4.7330747022000006  6.7601645723999999  3.2172423289999998
  1.0585164317000000  7.7256954275999998  4.8006059499999996
  3.0297733856000000  2.8970754275999999  2.0125745920000000
  3.0297733856000000  5.2728530400000002  4.5888440289999997
  5.0010894777999999  0.4442330400000000  1.8008126709999999
  4.7330747022000006  4.3843869600000005  0.6409728920000000
  2.7618177482999999  9.2130069599999995  3.4290042499999998
  2.3043829977999999  4.3843869600000005  4.0759988079999996
  4.2756399516999997  9.2130069599999995  1.2879674499999998
  5.4585242282999999  5.2728530400000002  1.1541526500000001
  3.4872081361000000  0.4442330400000000  3.9418494709999998
  4.7330747022000006  3.3413084676000002  3.9866774289999998
  0.7905607943999999  8.1699284676000001  1.1986460710000000
  3.0297733856000000  6.3159315323999996  1.2434740289999999
  1.0585164317000000  1.4873115324000001  4.0311708499999996
  0.3330669056000000  1.4873115324000001  5.0568612919999989
  2.3043829977999999  6.3159315323999996  2.2691644709999998
  1.5159511822000000  8.1699284676000001  0.1729556290000000
  5.4585242282999999  3.3413084676000002  2.9606524499999995
  0.8027094511920727  4.8401582455566245 10.7656308748670533
  2.9166439356476701 -0.0140590191648392  8.2305230568201040
  0.9342712921723419  7.2542959867153263  6.7877151593436755
  4.8612401868879607  2.4299354877498218  9.6032138803141152
  0.9233838874100667  2.3940450315696453  6.7995290894260174
  4.9170889400337119  7.2813213843475193  9.6084815359692346
  2.8796253486637853  4.8371647839583876  8.2060901437243441
  1.0210624769164780 -0.0868970419990191 10.9102423293201465
  1.5257693700122468  5.9314403231109338  9.2811833761707483
  3.4826400137961930  1.0417645407728766  6.5405971405655885
  4.2597582178306173  3.7858965024741815  7.1024401454017161
  2.4436613123959496  8.5632148533798595  9.9639702148016269
  2.7555124465239560  1.9188444021519460  6.0227189492347799
  0.8162851752986016  6.8311801471720335  8.7867828302200071
  3.1577334584004246  7.7226443670265521 10.4761757210784197
  4.9651174651923595  2.8815088252088064  7.5929860662761515
  4.9110173687494107  5.3252154155439912 10.2100409803536092
  1.0663644204338503  0.4287601267024087  7.3919890682731157
  0.7937173456072152  4.3763865578376020  6.2247714159363161
  4.7523693131958487  9.2423838363089938  9.0239473900586020
  4.1766919156213493  4.3965752988750806  9.7712008053148622
  0.3351373913622702  9.2127108206112016  6.8706328315587664
  1.5205346553136991  5.2643190684246406  6.7260846716801570
  5.4768911754234360  0.4882804478062934  9.5271274114600608
  0.7779675183020378  3.3150303417329692  9.5394741447422078
  2.7738013229409240  8.1677170749952825  6.7845643092077124
  4.9973806086292232  6.3280003878029101  6.8325959767081894
  3.0278797486665590  1.4500030383017062  9.7110525522497202
  2.3189097065372475  1.3995323429734843 10.7091172886930277
  4.2628431632632937  6.3407523850969110  7.8440567127715228
  3.4917393277860627  8.1741688281558691  5.7572867262647245
  1.5343023930879969  3.3129289379888363  8.5349575509238278
  1.6755501786803677  9.0542140334486003 12.2926595680490145
