Ir  N  H 
 1.0000000000000000
     5.9138299999999999    0.0000000000000000    0.0000000000000000
     0.0000000000000000    9.6572399999999998    0.0000000000000000
     0.0000000000000000    0.0000000000000000   33.4536999999999978
 Ir  N   H  
  16  48   1
Cartesian
  4.8670799999999996  4.8286199999999999  5.4027700000000003
  0.9245100000000001  0.0000000000000000  2.6150799999999998
  4.8670799999999996  7.2429300000000003  1.2210600000000000
  2.8958300000000001  2.4143100000000000  4.0087599999999997
  4.8670799999999996  2.4143100000000000  1.2210600000000000
  2.8958300000000001  7.2429300000000003  4.0087599999999997
  0.9245100000000001  4.8286199999999999  2.6150799999999998
  4.8670799999999996  0.0000000000000000  5.4027700000000003
  0.9181700000000000  4.7587999999999999 10.8303600000000007
  2.9227099999999999  9.6456999999999997  8.1916300000000000
  0.9268100000000000  7.2377900000000004  6.7965700000000000
  4.8802599999999998  2.4326800000000000  9.6280699999999992
  0.9221200000000001  2.3913700000000002  6.8006000000000002
  4.8995499999999996  7.2407800000000000  9.6220300000000005
  2.8878699999999999  4.8136700000000001  8.1929800000000004
  0.9701500000000000  9.5154200000000007 10.7725700000000000
  5.4585200000000000  5.8716999999999997  3.7300900000000001
  1.5159499999999999  1.0430800000000000  0.9423899999999999
  2.3043800000000001  3.7855400000000001  1.4997300000000000
  0.3330700000000000  8.6141600000000000  4.2874299999999996
  0.7905600000000000  1.9315400000000000  0.4292100000000000
  4.7330699999999997  6.7601599999999999  3.2172399999999999
  1.0585199999999999  7.7256999999999998  4.8006099999999998
  3.0297700000000001  2.8970799999999999  2.0125700000000002
  3.0297700000000001  5.2728500000000000  4.5888400000000003
  5.0010899999999996  0.4442300000000000  1.8008100000000000
  4.7330699999999997  4.3843899999999998  0.6409700000000000
  2.7618200000000002  9.2130100000000006  3.4289999999999998
  2.3043800000000001  4.3843899999999998  4.0759999999999996
  4.2756400000000001  9.2130100000000006  1.2879700000000001
  5.4585200000000000  5.2728500000000000  1.1541500000000000
  3.4872100000000001  0.4442300000000000  3.9418500000000001
  4.7330699999999997  3.3413100000000000  3.9866799999999998
  0.7905600000000000  8.1699300000000008  1.1986500000000000
  3.0297700000000001  6.3159299999999998  1.2434700000000001
  1.0585199999999999  1.4873099999999999  4.0311700000000004
  0.3330700000000000  1.4873099999999999  5.0568600000000004
  2.3043800000000001  6.3159299999999998  2.2691599999999998
  1.5159499999999999  8.1699300000000008  0.1729600000000000
  5.4585200000000000  3.3413100000000000  2.9606499999999998
  1.5179199999999999  5.8623300000000000  9.3042099999999994
  3.4893500000000000  1.0515600000000001  6.5257899999999998
  4.2686599999999997  3.7725399999999998  7.0947300000000002
  2.4060500000000000  8.5358800000000006  9.8418899999999994
  2.7565000000000000  1.9262400000000000  6.0137000000000000
  0.7940199999999999  6.7591000000000001  8.8136799999999997
  3.0981100000000001  7.7383600000000001 10.4479299999999995
  4.9731100000000001  2.8706299999999998  7.5910000000000002
  4.9347899999999996  5.2802800000000003 10.1790699999999994
  1.0708200000000001  0.4280700000000000  7.3842200000000000
  0.7828000000000001  4.3734700000000002  6.2201599999999999
  4.7635699999999996  9.2042199999999994  9.0309699999999999
  4.2106899999999996  4.3820399999999999  9.6891999999999996
  0.3344200000000000  9.2050500000000000  6.8800999999999997
  1.5106400000000000  5.2589899999999998  6.7227800000000002
  5.4265299999999996  0.4488300000000000  9.6235900000000001
  0.7957700000000000  3.3096899999999998  9.5536200000000004
  2.7718900000000000  8.1591900000000006  6.7756600000000002
  4.9928499999999998  6.3181500000000002  6.8370100000000003
  3.0343399999999998  1.4410900000000000  9.7060300000000002
  2.3481399999999999  1.3406100000000001 10.7104499999999998
  4.2520100000000003  6.3228499999999999  7.8432800000000000
  3.4924499999999998  8.1696399999999993  5.7507099999999998
  1.5452200000000000  3.2935200000000000  8.5424500000000005
  2.4098199999999999  4.4284400000000002 11.3934499999999996
