Ir  N Ir  N  H 
 1.0000000000000000
     5.9138299999999999    0.0000000000000000    0.0000000000000000
     0.0000000000000000    9.6572399999999998    0.0000000000000000
     0.0000000000000000    0.0000000000000000   33.4536999999999978
 Ir  N   Ir  N   H  
   8  24   8  24   1
Cartesian
  4.8670820899999994  4.8286199999999999  5.4027725499999999
  0.9245090439000000  0.0000000000000000  2.6150757290000000
  4.8670820899999994  7.2429299999999994  1.2210600500000000
  2.8958251361000000  2.4143100000000000  4.0087568710000001
  4.8670820899999994  2.4143100000000000  1.2210600500000000
  2.8958251361000000  7.2429299999999994  4.0087568710000001
  0.9245090439000000  4.8286199999999999  2.6150757290000000
  4.8670820899999994  0.0000000000000000  5.4027725499999999
  5.4585242282999999  5.8716984924000002  3.7300875499999999
  1.5159511822000000  1.0430784923999998  0.9423907290000000
  2.3043829977999999  3.7855415076000001  1.4997293709999999
  0.3330669056000000  8.6141615075999987  4.2874261919999999
  0.7905607943999999  1.9315445724000000  0.4292109709999999
  4.7330747022000006  6.7601645723999999  3.2172423289999998
  1.0585164317000000  7.7256954275999998  4.8006059499999996
  3.0297733856000000  2.8970754275999999  2.0125745920000000
  3.0297733856000000  5.2728530400000002  4.5888440289999997
  5.0010894777999999  0.4442330400000000  1.8008126709999999
  4.7330747022000006  4.3843869600000005  0.6409728920000000
  2.7618177482999999  9.2130069599999995  3.4290042499999998
  2.3043829977999999  4.3843869600000005  4.0759988079999996
  4.2756399516999997  9.2130069599999995  1.2879674499999998
  5.4585242282999999  5.2728530400000002  1.1541526500000001
  3.4872081361000000  0.4442330400000000  3.9418494709999998
  4.7330747022000006  3.3413084676000002  3.9866774289999998
  0.7905607943999999  8.1699284676000001  1.1986460710000000
  3.0297733856000000  6.3159315323999996  1.2434740289999999
  1.0585164317000000  1.4873115324000001  4.0311708499999996
  0.3330669056000000  1.4873115324000001  5.0568612919999989
  2.3043829977999999  6.3159315323999996  2.2691644709999998
  1.5159511822000000  8.1699284676000001  0.1729556290000000
  5.4585242282999999  3.3413084676000002  2.9606524499999995
  0.8046856023766576  4.9340598602014065 10.8640994107243767
  2.9051878381908791 -0.0037676725729268  8.1921297570437073
  0.9263869032069559  7.2520931226555287  6.7948848540314977
  4.8836898579474450  2.4136045335137730  9.6090037078721746
  0.9251211119447860  2.4026236743062950  6.7985183234835818
  4.8697418271760933  7.2634766581577157  9.6119845701204536
  2.8662181335474131  4.8225260111065067  8.2190338189115906
  0.9398274335393861 -0.0538568174292012 10.7680961065260323
  1.4855033595793383  5.9032233375125962  9.3045388539381868
  3.4866193178933931  1.0520990264796806  6.5263027400273730
  4.2555787614656539  3.7870182423754950  7.1012695105468078
  2.3826064117118086  8.5622686803750945  9.8753761878512041
  2.7578040126173691  1.9304262959233653  6.0144425533797907
  0.7859742510005275  6.8103600505308739  8.8042383975588230
  3.0887770285674194  7.7612444082155436 10.4617438079560081
  4.9624989462357254  2.8820890680635021  7.5877149381696309
  4.9144694972563991  5.3017750048070962 10.2158807957357496
  1.0634061917188722  0.4384972238007861  7.3858350345681485
  0.7932825184674729  4.3799891194308422  6.2262789841560648
  4.7354718672919258  9.2033022555263067  9.0088018996568522
  4.2016626946579754  4.3640101851635151  9.7685797656477931
  0.3280706684174985  9.2152822598859263  6.8770711024528479
  1.5151994607590993  5.2664936033267038  6.7397144824220412
  5.3995798683515899  0.4582305725226872  9.5954414787025364
  0.7655476073057126  3.3389150797578795  9.5342400443141599
  2.7647514597438536  8.1705061333671409  6.7752776847689278
  4.9897093854172940  6.3271704224560432  6.8461302760137412
  3.0194638749772342  1.4579838120876210  9.6985860158745840
  2.3055150593414622  1.3862075233365156 10.6874679161254722
  4.2542858308849798  6.3319094958628623  7.8545981079896743
  3.4909872696191298  8.1725093536985316  5.7534995885072444
  1.5114480172080142  3.3077798500880218  8.5281308698937686
  0.7754045355411981  6.1807322169430066 11.9244184105717803
