Hf  N  H 
 1.0000000000000000
     3.2427299999999999    0.0000000000000000    0.0000000000000000
     0.0000000000000000    7.5352499999999996    0.0000000000000000
     0.0000000000000000    0.0000000000000000   37.6762000000000015
 Hf  N   H  
  16   8   1
Cartesian
  0.0000000000000000  3.7676200000000000  0.7712300000000000
  0.0000000000000000  0.0000000000000000  4.5388500000000001
  0.0000000000000000  3.7676200000000000  5.2215400000000001
  0.0000000000000000  0.0000000000000000  1.4539200000000001
  1.6213599999999999  1.5424700000000000  6.7640099999999999
  1.6213599999999999  5.3100899999999998  2.9963899999999999
  1.6213599999999999  5.9927799999999998  6.7640099999999999
  1.6213599999999999  2.2251599999999998  2.9963899999999999
  0.0000000000000000  3.8158099999999999  8.2834800000000008
  0.0000000000000000  0.0417700000000000 12.0498799999999999
  0.0000000000000000  3.3666200000000002 12.7354599999999998
  0.0000000000000000  7.4225599999999998  8.9716699999999996
  1.6213599999999999  1.3398099999999999 14.5301200000000001
  1.6213599999999999  5.2601100000000001 10.6093899999999994
  1.6213599999999999  5.7579300000000000 14.0451300000000003
  1.6213599999999999  2.1576300000000002 10.3450100000000003
  0.0000000000000000  3.7676200000000000  2.9963899999999999
  0.0000000000000000  0.0000000000000000  6.7640099999999999
  1.6213599999999999  3.7676200000000000  6.7640099999999999
  1.6213599999999999  0.0000000000000000  2.9963899999999999
  0.0000000000000000  3.7062900000000001 10.5006000000000004
  0.0000000000000000  7.1789699999999996 14.3391199999999994
  1.6213599999999999  3.5386400000000000 14.0726800000000001
  1.6213599999999999  7.4836000000000000 10.5236499999999999
  1.6213599999999999  1.5094000000000001 16.3922999999999988
