Hf  N  H 
 1.0000000000000000
     3.2427299999999999    0.0000000000000000    0.0000000000000000
     0.0000000000000000    7.5352499999999996    0.0000000000000000
     0.0000000000000000    0.0000000000000000   37.6762000000000015
 Hf  N   H  
  16   8   1
Cartesian
  0.0000000000000000  3.7676200000000000  0.7712300000000000
  0.0000000000000000  0.0000000000000000  4.5388500000000001
  0.0000000000000000  3.7676200000000000  5.2215400000000001
  0.0000000000000000  0.0000000000000000  1.4539200000000001
  1.6213599999999999  1.5424700000000000  6.7640099999999999
  1.6213599999999999  5.3100899999999998  2.9963899999999999
  1.6213599999999999  5.9927799999999998  6.7640099999999999
  1.6213599999999999  2.2251599999999998  2.9963899999999999
  0.0107700000000000  3.7676200000000000  8.2974800000000002
  0.0288300000000000  0.0000000000000000 11.9950200000000002
  0.0286700000000000  3.7676200000000000 12.8070599999999999
  0.0188400000000000  0.0000000000000000  8.9614499999999992
  1.6525099999999999  1.4794000000000000 14.3307199999999995
  1.6483800000000000  5.3147700000000002 10.4834099999999992
  1.6525099999999999  6.0558500000000004 14.3307199999999995
  1.6483800000000000  2.2204799999999998 10.4834099999999992
  0.0000000000000000  3.7676200000000000  2.9963899999999999
  0.0000000000000000  0.0000000000000000  6.7640099999999999
  1.6213599999999999  3.7676200000000000  6.7640099999999999
  1.6213599999999999  0.0000000000000000  2.9963899999999999
  0.0272500000000000  3.7676200000000000 10.5253099999999993
  0.0337600000000000  0.0000000000000000 14.1618600000000008
  1.6486300000000000  3.7676200000000000 14.1460899999999992
  1.6464200000000000  0.0000000000000000 10.4911200000000004
  1.6563900000000000  0.0000000000000000 15.8343900000000009
