Hf  N Hf  N  H 
 1.0000000000000000
     3.2427299999999999    0.0000000000000000    0.0000000000000000
     0.0000000000000000    7.5352499999999996    0.0000000000000000
     0.0000000000000000    0.0000000000000000   37.6762000000000015
 Hf  N   Hf  N   H  
   8   4   8   4   1
Cartesian
  0.0000000000000000  3.7676249999999998  7.1938936280000005
  0.0000000000000000  0.0000000000000000  3.4262736279999997
  0.0000000000000000  3.7676249999999998  4.1089663720000003
  0.0000000000000000  0.0000000000000000  0.3413463720000000
  1.6213649999999999  1.5424656749999999  5.6514300000000004
  1.6213649999999999  5.3100906749999996  1.8838100000000002
  1.6213649999999999  5.9927843249999997  5.6514300000000004
  1.6213649999999999  2.2251593249999999  1.8838100000000002
  0.0000000000000000  3.7676249999999998  1.8838100000000002
  0.0000000000000000  0.0000000000000000  5.6514300000000004
  1.6213649999999999  3.7676249999999998  5.6514300000000004
  1.6213649999999999  0.0000000000000000  1.8838100000000002
  0.0000000000000000  3.7676249999999998 14.6095808047633895
  0.0000000000000001 -0.0000000000000000 10.8788931781121150
  0.0000000000000001  3.7676249999999998 11.6484089170926488
  0.0000000000000000 -0.0000000000000000  7.8627355505900418
  1.6213649999999999  1.5018443823413896 13.2941677798521205
  1.6213649999999999  5.3079776645028058  9.3977734760161127
  1.6213649999999999  6.0334056176586062 13.2941677798521205
  1.6213649999999999  2.2272723354971746  9.3977734760161127
 -0.0000000000000000  3.7676249999999998  9.4240058331176844
 -0.0000000000000000 -0.0000000000000000 12.9967163467216285
  1.6213649999999999  3.7676249999999998 13.1717647398142272
  1.6213649999999999 -0.0000000000000000  9.3881711245949759
  0.0000000000000014  0.0000000000000033 15.2228575956463619
