 W  N  H 
 1.0000000000000000
     5.9270300000000002    0.0000000000000000    0.0000000000000000
     0.0000000000000000    8.1969399999999997    0.0000000000000000
     0.0000000000000000    0.0000000000000000   29.6068999999999996
 W   N   H  
   8  16   1
Cartesian
  5.7053599999999998  4.0984699999999998  5.0695899999999998
  2.8712900000000001  0.0000000000000000  2.1089000000000002
  2.7418399999999998  2.0492300000000001  5.0695899999999998
  5.8348100000000001  6.1477100000000000  2.1089000000000002
  5.4026500000000004  4.0162000000000004 11.0371400000000008
  2.6317599999999999 -0.0244900000000000  8.0483700000000002
  2.4322200000000000  2.0387900000000001 11.0035500000000006
  5.5903200000000002  6.1119199999999996  8.0706299999999995
  0.0566600000000000  5.4320300000000001  3.8124799999999999
  3.1496200000000001  1.3335600000000001  0.8517900000000000
  0.1861100000000000  4.8141400000000001  0.8517900000000000
  3.0201799999999999  0.7156700000000000  3.8124799999999999
  1.0464199999999999  2.7649100000000000  4.8463500000000002
  4.1394399999999996  6.8633800000000003  1.8856599999999999
  4.0099299999999998  3.3828000000000000  4.8463500000000002
  1.1759200000000001  7.4812700000000003  1.8856599999999999
  5.7282799999999998  5.2751700000000001  9.7935400000000001
  2.8845299999999998  1.2606900000000001  6.7964099999999998
  5.8651200000000001  4.8453400000000002  6.8102299999999998
  2.8128799999999998  0.7773400000000000  9.7794699999999999
  0.6718400000000000  2.6007899999999999 10.9702599999999997
  3.8938999999999999  6.8338700000000001  7.8560600000000003
  3.6492499999999999  3.4376699999999998 11.0277200000000004
  0.9295200000000000  7.4483300000000003  7.8907299999999996
  5.6496300000000002  4.8120099999999999 12.5380299999999991
