 Y Re  Y Re  Y Re  H 
 1.0000000000000000
     6.5584185358810458    0.0000000000000000    0.0000000000000000
    -3.2792087679405584    5.6797565980612283    0.0000000000000000
     0.0000000000000000    0.0000000000000000   25.3549252057105221
 Y   Re  Y   Re  Y   Re  H  
   3   1   3   1   3   1   1
Cartesian
  0.0000000000000000  0.0000000000000000  9.9999992923310419
 -1.6396045839702651  2.8398784990305996  9.9999992923310419
  1.6396045839702651  2.8398784990305996  9.9999992923310419
  3.2792091679405302  0.0000000000000000  9.9999992923310419
  3.2792091679405302  1.8932523660203977 12.6774624028552747
  1.6396045839702651  4.7331307650510039 12.6774624028552747
 -1.6396045839702651  4.7331307650510039 12.6774624028552747
  0.0000000000000000  1.8932523660203977 12.6774624028552747
  0.0005482999611985  4.0342105145114253 15.5829844972404832
  1.5943664871716250  1.2893213087587267 15.3124722163837976
  4.9642245486972136  1.2896329087366760 15.3124141163879095
  3.2791404679453922  3.7940808315046581 14.9087602449532426
  0.0002621999814449  2.0882318522223038 16.6447912220997125
