 W  N  H 
 1.0000000000000000
     5.9606300000000001    0.0000000000000000    0.0000000000000000
     0.0000000000000000    8.0680399999999999    0.0000000000000000
     0.0000000000000000    0.0000000000000000   34.8271000000000015
 W   N   H  
   8  16   1
Cartesian
  2.2358899999999999  1.0092300000000001  5.5535300000000003
  5.2162100000000002  5.0432499999999996  2.0164900000000001
  2.2358899999999999  3.0247899999999999  2.6513900000000001
  5.2162100000000002  7.0588100000000003  4.9189800000000004
  2.1973699999999998  0.9562600000000000 11.4707699999999999
  5.3081300000000002  5.0715300000000001  7.8949900000000000
  2.3241499999999999  2.9915300000000000  8.5115099999999995
  5.1705399999999999  7.1216799999999996 10.8108900000000006
  0.5719800000000000  0.2337300000000000  5.3038200000000000
  5.3879900000000003  5.6030899999999999  0.2507600000000000
  2.4076800000000000  1.5690700000000000  1.5149800000000000
  3.5522999999999998  4.2677500000000004  2.2662000000000000
  5.3879900000000003  6.4989699999999999  3.1532499999999999
  0.5719800000000000  3.8002899999999999  2.4016799999999998
  3.5522999999999998  7.8343100000000003  5.1686899999999998
  2.4076800000000000  2.4649500000000000  4.4171199999999997
  0.4976800000000000  0.2480700000000000 11.3932800000000007
  5.3860700000000001  5.6331100000000003  6.1665299999999998
  2.4051000000000000  1.5915800000000000  7.3656699999999997
  3.7329100000000000  4.1467900000000002  8.1972199999999997
  5.4159800000000002  6.5347499999999998  9.1250199999999992
  0.7455600000000000  3.9102800000000002  8.2360299999999995
  3.4595400000000001  7.6976199999999997 11.1859800000000007
  2.3925800000000002  2.3230800000000000 10.3231500000000000
  2.4192000000000000  1.6005199999999999 13.0533400000000004
