Sr Ir  O Sr Ir  O Sr Ir  O Sr Ir  O Sr Ir  O Sr Ir  O Sr Ir  O Sr Ir  O Sr Ir  O Sr Ir  O Sr Ir  O Sr Ir  O  H 
 1.0000000000000000
     8.0946294818800002    0.0000000000000000    0.0000000000000000
     0.0000000000000000    8.0946294818800002    0.0000000000000000
     0.0000000000000000    0.0000000000000000   30.1182868523499998
 Sr  Ir  O   Sr  Ir  O   Sr  Ir  O   Sr  Ir  O   Sr  Ir  O   Sr  Ir  O   Sr  Ir  O   Sr  Ir  O   Sr  Ir  O   Sr  Ir  O   Sr  Ir  O   Sr  Ir  O   H  
   1   1   3   1   1   3   1   1   3   1   1   3   1   1   3   1   1   3   1   1   3   1   1   3   1   1   3   1   1   3   1   1   3   1   1   3   1
Cartesian
  0.0000000000000000  0.0000000000000000 10.0000000000000000
  2.0236573704700000  2.0236573704700000 12.0236573704699996
  2.0236573704700000  2.0236573704700000 10.0000000000000000
  0.0000000000000000  2.0236573704700000 12.0236573704699996
  2.0236573704700000 -0.0000000000000001 12.0236573704699996
  4.0473147409400001  0.0000000000000000 10.0000000000000000
  6.0709721114100006  2.0236573704700000 12.0236573704699996
  6.0709721114100006  2.0236573704700000 10.0000000000000000
  4.0473147409400001  2.0236573704700000 12.0236573704699996
  6.0709721114100006 -0.0000000000000001 12.0236573704699996
  0.0000000000000000  4.0473147409400001 10.0000000000000000
  2.0236573704700000  6.0709721114100006 12.0236573704700014
  2.0236573704700000  6.0709721114100006 10.0000000000000000
  0.0000000000000000  6.0709721114100006 12.0236573704700014
  2.0236573704700000  4.0473147409400001 12.0236573704700014
  4.0473147409400001  4.0473147409400001 10.0000000000000000
  6.0709721114100006  6.0709721114100006 12.0236573704700014
  6.0709721114100006  6.0709721114100006 10.0000000000000000
  4.0473147409400001  6.0709721114100006 12.0236573704700014
  6.0709721114100006  4.0473147409400001 12.0236573704700014
  0.0000000000000000 -0.0000000000000002 14.0473147409399992
  2.0236573704700000  2.0236573704699996 16.0709721114100006
  2.0236573704700000  2.0236573704699996 14.0473147409399992
  0.0000000000000000  2.0236573704699996 16.0709721114100006
  2.0236573704700000 -0.0000000000000004 16.0709721114100006
  4.0473147409400001 -0.0000000000000002 14.0473147409399992
  6.0709721114100006  2.0236573704699996 16.0709721114100006
  6.0709721114100006  2.0236573704699996 14.0473147409399992
  4.0473147409400001  2.0236573704699996 16.0709721114100006
  6.0709721114100006 -0.0000000000000004 16.0709721114100006
  0.0000000000000000  4.0473147409400001 14.0473147409399992
  2.0236573704700000  6.0709721114100006 16.0709721114100006
  2.0236573704700000  6.0709721114100006 14.0473147409399992
  0.0000000000000000  6.0709721114100006 16.0709721114100006
  2.0236573704700000  4.0473147409400001 16.0709721114100006
  4.0473147409400001  4.0473147409400001 14.0473147409399992
  6.0709721114100006  6.0709721114100006 16.0709721114100006
  6.0709721114100006  6.0709721114100006 14.0473147409399992
  4.0473147409400001  6.0709721114100006 16.0709721114100006
  6.0709721114100006  4.0473147409400001 16.0709721114100006
 -0.0210466372867372 -0.0055018695122010 18.7805166616576038
  1.8596583920285055  2.2080431114016661 21.0857531413170953
  2.0875071867401287  2.0335604995524332 18.0207571575334349
 -0.0632561243899624  2.1723900022657414 20.3417628864953599
  2.1498981642065425  0.5325329789499442 20.5155092426047752
  4.0259527104881796  0.0455706803902890 18.4640099117314982
  6.0980903933185484  2.2084503940710620 21.0912077467144030
  6.0105133358028580  2.0156740762979974 18.0161244931461297
  3.9778402233510737  2.2611196464804642 21.7183393409491785
  5.8404466872282343  0.5308988756881196 20.5152846856981093
 -0.0027469998864462  3.5681312616551684 18.1108173997439330
  2.0323605462918595  5.3852364116614622 19.7843929608680398
  2.0361456816277244  6.4938560284075706 18.1317582331678508
 -0.0071320670915766  5.5945239224676362 19.7038110630076666
  1.8813890918176470  4.0343890626950980 21.1173446920461068
  4.0472299430198442  3.7973478165861305 17.8421641046582735
  6.0492262235984366  5.3850412098227967 19.7860024741951008
  6.0421683670626392  6.4931664624613621 18.1329527679610472
  4.0399794642392735  5.4830457122252181 19.7669266163015855
  6.1285437920287453  4.0341187844590261 21.1230069527529309
  3.9773630733997720  1.7199006472355718 22.5352723163084683
