 W  N  H 
 1.0000000000000000
     5.9606300000000001    0.0000000000000000    0.0000000000000000
     0.0000000000000000    8.0680399999999999    0.0000000000000000
     0.0000000000000000    0.0000000000000000   34.8271000000000015
 W   N   H  
   8  16   1
Cartesian
  2.2358899999999999  1.0092300000000001  5.5535300000000003
  5.2162100000000002  5.0432499999999996  2.0164900000000001
  2.2358899999999999  3.0247899999999999  2.6513900000000001
  5.2162100000000002  7.0588100000000003  4.9189800000000004
  2.2142100000000000  0.9935700000000000 11.4503699999999995
  5.2160200000000003  5.0471700000000004  7.8837000000000002
  2.2290800000000002  3.0080700000000000  8.4798500000000008
  5.1911100000000001  7.1246200000000002 10.8117000000000001
  0.5719800000000000  0.2337300000000000  5.3038200000000000
  5.3879900000000003  5.6030899999999999  0.2507600000000000
  2.4076800000000000  1.5690700000000000  1.5149800000000000
  3.5522999999999998  4.2677500000000004  2.2662000000000000
  5.3879900000000003  6.4989699999999999  3.1532499999999999
  0.5719800000000000  3.8002899999999999  2.4016799999999998
  3.5522999999999998  7.8343100000000003  5.1686899999999998
  2.4076800000000000  2.4649500000000000  4.4171199999999997
  0.5334600000000000  0.2372500000000000 11.3889099999999992
  5.3670200000000001  5.6333099999999998  6.1695599999999997
  2.4088699999999998  1.5976399999999999  7.3612900000000003
  3.5609600000000001  4.2474100000000004  8.1486800000000006
  5.4353199999999999  6.4658300000000004  9.1503200000000007
  0.5775400000000001  3.7967499999999998  8.2057300000000009
  3.4974799999999999  7.7608199999999998 11.1496600000000008
  2.3546399999999998  2.3530500000000001 10.2904000000000000
  2.4709900000000000  1.6987000000000001 13.0023499999999999
