Mo  N Mo  N  H 
 1.0000000000000000
     5.7332200000000002    0.0000000000000000    0.0000000000000000
     0.0000000000000000    5.6628600000000002    0.0000000000000000
     0.0000000000000000    0.0000000000000000   34.7558000000000007
 Mo  N   Mo  N   H  
   8   8   8   8   1
Cartesian
  1.3635890448000001  4.2363289374000006  2.4826067939999996
  2.9014679775999999  1.4048989374000000  0.0604750920000000
  4.2301990448000009  1.4048989374000000  2.3616566099999998
  4.4393469104000003  4.2363289374000006  2.4826067939999996
  1.5727369104000002  1.4048989374000000  2.3616566099999998
  0.0348579776000000  4.2363289374000006  4.7841358700000001
  2.9014679775999999  1.4442558143999999  4.9047384960000002
  2.9014679775999999  4.2756858144000001  4.9047384960000002
  1.4693096216000001  5.6254284954000005  0.7677556219999999
  0.0348579776000000  2.7939984953999999  1.5959863360000002
  1.4670163335999999  2.7939984953999999  4.0765077820000002
  4.3359196215999996  2.7939984953999999  4.0765077820000002
  0.0348579776000000  0.1162018872000000  3.2496673000000000
  4.3336263335999998  5.6254284954000005  0.7677556219999999
  2.9014679775999999  5.6254284954000005  3.2482770680000002
  2.9014679775999999  2.9476318872000000  1.5945961039999998
  4.2600334194631264  4.2566895385199768  7.4552078255916499
  0.0346663633126825  1.4088705709708631  5.0267023742863719
  1.4092384323213560  1.4375543566210660  7.3305016385412145
  1.5353643477172008  4.2556604339893216  7.4278598798933260
  4.3914029083955164  1.4362257985941176  7.3287630734956579
  2.8949702206850310  4.2654719368170877  9.6466956546432030
  0.0304691403605490  1.4634133241191072  9.5940512967442793
  0.0658375473827790  4.3197759074401381  9.6241348772472008
  4.3193589060973805  5.6351413703045603  5.7541931047135009
  2.9007180655465818  2.8240192142002742  6.5764476273365080
  4.3455910998683205  2.8541756268705627  9.3235544323726458
  1.4823868511647844  2.8210688765063074  9.3190062348209572
  2.8942656126904809  0.0543794938568481  8.2046797662254054
  1.4803401785865322  5.6370325861440902  5.7541597880835340
  0.0288264436790472  5.6698713595622552  8.1561167509481507
  0.0302659072895624  2.9197447407168320  6.5765938817089946
  1.2927101956301379 -0.1277234442294455 10.4186238128422310
