Mn Ir Mn Ir Mn Ir Mn  H 
 1.0000000000000000
     5.3024016247654702    0.0000000000000000    0.0000000000000000
     2.2163238431576304    4.8169886591166415    0.0000000000000000
     0.0000000000000000    0.0000000000000000   24.3925232738167246
 Mn  Ir  Mn  Ir  Mn  Ir  Mn  H  
   1   2   2   2   2   2   1   1
Cartesian
  0.0000000000000000  0.0000000000000000  9.9999991133898298
  1.1081619215788152  2.4084943295583208  9.9999991133898298
  2.6512008123827351  0.0000000000000000  9.9999991133898298
  3.7593627339615505  2.4084943295583208  9.9999991133898298
  5.3024020326933954  3.3970665063551624 12.1962616369083623
  4.1942401111145804  0.9885721767968420 12.1962616369083623
  2.6512012203106603  3.3970665063551624 12.1962616369083623
  1.5430392987318451  0.9885721767968420 12.1962616369083623
  3.5523497524738161  2.2906686867492723 14.5150146797846702
  4.6580233972103944  4.6831401705909999 14.2201679081703620
  6.2461639566846410  2.3037443205756372 14.2480318046088463
  7.3254430372589532  4.6776268717702427 14.5148288087573238
  5.2836588143310843  1.6860142247992715 15.5131059225232715
