Nb  N Nb  N Nb  N Nb  N  H 
 1.0000000000000000
     5.3445200000000002    0.0000000000000000    0.0000000000000000
    -1.7272608330669896   10.5485613301602754    0.0000000000000000
     0.0000000000000000    0.0000000000000000   29.2037000000000013
 Nb  N   Nb  N   Nb  N   Nb  N   H  
   4   5   4   5   4   5   4   5   1
Cartesian
  1.9286854134911293  1.9589733246240646  3.1589642290000004
  1.9956877385431355  0.8832837829809707  0.1658770160000000
  3.0010370630331380  3.9527569016376582  0.9242971050000000
  4.7953244421730927  1.4096569933559684  1.5816723920000000
 -0.6057438482306934  5.0551870462527084  0.5452330790000000
  0.1720379971302026  0.7011101288091026  3.4845854840000001
  3.8167762425941034  3.0668887211307982  2.7109794709999999
  2.9071888041742842  0.3016888540425839  2.0296571500000002
  1.2074070496381850  2.6674674463642800  1.2560511370000000
  3.8717222866922607  0.2506504638446057  6.5514074849801665
  2.9117539732270532  4.7155205936026405  3.7048531149389694
  4.8632424891874964  2.4451781363001674  4.6929309412050939
  0.4538605390530944  5.1395696268221807  5.4690903680634593
  1.2039956588623828  3.5692483473553396  4.2132209465704653
  1.3031502860325626  4.6701651154193158  7.0572529752028501
  0.0843117022388092  1.5162539710672831  6.3165132521751213
  3.8979480195053293  4.0527189624714177  5.6432726015102670
  3.0113602346902901  1.1095930031750760  4.9626152406975033
  1.0650549969576346  7.2332539897042025  3.1589642290000004
  1.1320573220096408  6.1575644480611080  0.1658770160000000
  2.1374066464996431  9.2270375667177955  0.9242971050000000
  3.9316940256395978  6.6839376584361059  1.5816723920000000
 -1.4693742647641881 10.3294677113328461  0.5452330790000000
 -0.6915924194032923  5.9753907938892405  3.4845854840000001
  2.9531458260606085  8.3411693862109360  2.7109794709999999
  2.0435583876407892  5.5759695191227214  2.0296571500000002
  0.3437766331046902  7.9417481114444177  1.2560511370000000
  3.0545756384269320  5.4506728527233390  6.7167014316937399
  2.0320101055915205  9.9683490901852529  3.6852681884668881
  3.9693429575956167  7.6588671384304607  4.7431962525778770
 -0.4699379804605358 10.4083034066799982  5.4502597685973351
  0.3168547766051854  8.8326136636124577  4.2212294550703469
  0.3952207836552080 10.1065296788428114  7.0953095522706251
 -0.7106646452175848  6.7604388202435075  6.2782334608788588
  2.9931748828988201  9.3322510260287217  5.6343797143960126
  2.1433317336191902  6.4033565009591680  4.9767163492317117
  3.4066950582188413  5.7421422278457959  8.4648257416204338
