Mo  N Mo  N  H 
 1.0000000000000000
     5.7332200000000002    0.0000000000000000    0.0000000000000000
     0.0000000000000000    5.6628600000000002    0.0000000000000000
     0.0000000000000000    0.0000000000000000   34.7558000000000007
 Mo  N   Mo  N   H  
   8   8   8   8   1
Cartesian
  1.3635890448000001  4.2363289374000006  2.4826067939999996
  2.9014679775999999  1.4048989374000000  0.0604750920000000
  4.2301990448000009  1.4048989374000000  2.3616566099999998
  4.4393469104000003  4.2363289374000006  2.4826067939999996
  1.5727369104000002  1.4048989374000000  2.3616566099999998
  0.0348579776000000  4.2363289374000006  4.7841358700000001
  2.9014679775999999  1.4442558143999999  4.9047384960000002
  2.9014679775999999  4.2756858144000001  4.9047384960000002
  1.4693096216000001  5.6254284954000005  0.7677556219999999
  0.0348579776000000  2.7939984953999999  1.5959863360000002
  1.4670163335999999  2.7939984953999999  4.0765077820000002
  4.3359196215999996  2.7939984953999999  4.0765077820000002
  0.0348579776000000  0.1162018872000000  3.2496673000000000
  4.3336263335999998  5.6254284954000005  0.7677556219999999
  2.9014679775999999  5.6254284954000005  3.2482770680000002
  2.9014679775999999  2.9476318872000000  1.5945961039999998
  4.2511562653159052  4.2589878666985959  7.4552615278139722
  0.0329075865292569  1.4096950835908788  5.0278861544271969
  1.4015971712278594  1.4390764868378896  7.3314691177177540
  1.5240966529865569  4.2571800542641434  7.4308651579582197
  4.3839051416872801  1.4394498133163431  7.3279446582573158
  2.8820725465918180  4.2676686530390935  9.6477927905005547
  0.0149092269780008  1.4672023779045673  9.5928315264231205
  0.0443370490374205  4.3236984076655682  9.6257744725118961
  4.3176516158195897  5.6360353568293675  5.7538235037685075
  2.8918480467436276  2.8236224219543722  6.5782084702037249
  4.3263567323588177  2.8543602494139981  9.3126877349299679
  1.4642982460101848  2.8294576831816975  9.3254861773534579
  2.8853588006121385  0.0583918541218992  8.2048242010733130
  1.4793185091377496  5.6387761699127807  5.7539384595997749
  0.0186572294584879  5.6734358513840233  8.1570592613271220
  0.0233325685487957  2.9204813441838944  6.5735721562287273
  1.2711408906408466 -0.1256384136076956 10.4146539036287038
