Cr  N  H 
 1.0000000000000000
     4.7742599999999999    0.0000000000000000    0.0000000000000000
     0.0000000000000000    8.7775599999999994    0.0000000000000000
     0.0000000000000000    0.0000000000000000   33.0771000000000015
 Cr  N   H  
  24  12   1
Cartesian
  2.0225700000000000  3.2788599999999999  2.0673200000000000
  4.3597599999999996  3.2788599999999999  0.7177700000000000
  4.3597599999999996  3.2788599999999999  3.4168599999999998
  2.8016299999999998  1.1099200000000000  0.7177700000000000
  0.3645600000000000  1.1099200000000000  2.0673200000000000
  2.8016299999999998  1.1099200000000000  3.4168599999999998
  4.3334099999999998  3.3230400000000002  6.0854999999999997
  1.9960300000000000  3.3136100000000002  4.7888599999999997
  1.9896600000000000  3.1260500000000002  7.3754799999999996
  0.4543200000000000  1.0661200000000000  4.8402099999999999
  2.8668000000000000  1.0527400000000000  6.1432300000000000
  0.4583900000000000  1.4696300000000000  7.4077000000000002
  2.0225700000000000  7.6676399999999996  2.0673200000000000
  4.3597599999999996  7.6676399999999996  0.7177700000000000
  4.3597599999999996  7.6676399999999996  3.4168599999999998
  2.8016299999999998  5.4987000000000004  0.7177700000000000
  0.3645600000000000  5.4987000000000004  2.0673200000000000
  2.8016299999999998  5.4987000000000004  3.4168599999999998
  4.3507400000000001  7.7042200000000003  6.1816199999999997
  1.9593200000000000  7.7081600000000003  4.8412899999999999
  2.0910600000000001  7.4938900000000004  7.3889300000000002
  0.4010500000000000  5.4726100000000004  4.8053200000000000
  2.8400799999999999  5.4699499999999999  6.1605499999999997
  0.3169700000000000  5.4614399999999996  7.4788600000000001
  3.5806900000000002  0.0000000000000000  2.0673200000000000
  1.1935600000000000  2.1943899999999998  0.6889999999999999
  1.1935600000000000  2.1943899999999998  3.4456400000000000
  1.1812400000000001  0.0374000000000000  6.3293999999999997
  3.5922200000000002  2.1663500000000000  4.7724500000000001
  3.5483099999999999  2.2033200000000002  7.5889199999999999
  3.5806900000000002  4.3887799999999997  2.0673200000000000
  1.1935600000000000  6.5831700000000000  0.6889999999999999
  1.1935600000000000  6.5831700000000000  3.4456400000000000
  1.2252700000000001  4.4003899999999998  6.1602300000000003
  3.5803799999999999  6.5991099999999996  4.8010799999999998
  3.6457600000000001  6.5628200000000003  7.6760200000000003
  0.8085500000000000  3.3698700000000001  8.5403000000000002
