Cr  N  H 
 1.0000000000000000
     4.3887799999999997    0.0000000000000000    0.0000000000000000
     0.0000000000000000    8.2692700000000006    0.0000000000000000
     0.0000000000000000    0.0000000000000000   28.6456000000000017
 Cr  N   H  
  24  12   1
Cartesian
  1.1099200000000000  1.3493800000000000  4.3349399999999996
  1.1099200000000000  5.4840099999999996  1.9476100000000001
  1.1099200000000000  6.9198899999999997  4.3349399999999996
  1.1099200000000000  2.7852600000000001  1.9476100000000001
  1.1099200000000000  4.1346400000000001  4.3847800000000001
  1.1099200000000000  0.0000000000000000  1.9974600000000000
  3.2788599999999999  4.1346400000000001  2.7267700000000001
  3.2788599999999999  0.0000000000000000  0.3397400000000000
  3.2788599999999999  2.7852600000000001  0.3895800000000000
  3.2788599999999999  6.9198899999999997  2.7766199999999999
  3.2788599999999999  5.4840099999999996  0.3895800000000000
  3.2788599999999999  1.3493800000000000  2.7766199999999999
  1.0940000000000001  1.2975800000000000  8.9298699999999993
  1.0955900000000001  5.5306600000000001  6.7249999999999996
  1.0940000000000001  6.9716899999999997  8.9298699999999993
  1.0955900000000001  2.7386100000000000  6.7249999999999996
  1.0215700000000001  4.1346400000000001  8.8911800000000003
  1.0194099999999999  0.0000000000000000  6.7508999999999997
  3.2922899999999999  4.1346400000000001  7.5672400000000000
  3.2850500000000000  0.0000000000000000  5.1104300000000000
  3.3196400000000001  2.7632099999999999  5.1493599999999997
  3.3044199999999999  6.8263199999999999  7.4832599999999996
  3.3196400000000001  5.5060599999999997  5.1493599999999997
  3.3044199999999999  1.4429500000000000  7.4832599999999996
  0.0000000000000000  4.1346400000000001  1.1687399999999999
  0.0000000000000000  0.0000000000000000  3.5557799999999999
  2.1943899999999998  5.5128700000000004  3.5557799999999999
  2.1943899999999998  1.3782399999999999  1.1687399999999999
  2.1943899999999998  2.7564000000000002  3.5557799999999999
  2.1943899999999998  6.8910299999999998  1.1687399999999999
  0.0115700000000000  4.1346400000000001  5.9592299999999998
 -0.2243700000000000  0.0000000000000000  8.3529800000000005
  2.2385999999999999  5.5354999999999999  8.4575399999999998
  2.1826400000000001  1.3706700000000001  5.9367999999999999
  2.2385999999999999  2.7337699999999998  8.4575399999999998
  2.1826400000000001  6.8986000000000001  5.9367999999999999
  1.6099600000000001  0.0000000000000000 10.0304000000000002
