 O Pt  O Pt  O Pt  O Pt  O Pt  O Pt  O Pt  O Pt  O  H 
 1.0000000000000000
     6.5103420250937685    0.0000000000000000    0.0000000000000000
     0.0000000000000000    6.4837501369887409    0.0000000000000000
     0.0000000000000000    0.0000000000000000   27.0206840501875405
 O   Pt  O   Pt  O   Pt  O   Pt  O   Pt  O   Pt  O   Pt  O   Pt  O   H  
   1   2   4   2   4   2   4   2   4   2   4   2   4   2   4   2   3   1
Cartesian
  6.5103420250937685  3.2418750684943705  7.0000000000000009
  3.2551710125468842  3.2418750684943700  8.2418046261587570
  6.5103420250937685  1.6209375342471850  8.2418046261587570
  3.2551710125468829  3.2418750684943700 10.2551710125468851
  6.5103420250937685  3.2418750684943700  9.4836092523175139
  4.4969756387056403  1.6209375342471850  8.2418046261587570
  2.0133663863881277  1.6209375342471850  8.2418046261587570
  6.5103420250937685  3.2418750684943696 11.4969756387056421
  3.2551710125468829  1.6209375342471846 11.4969756387056421
  6.2615175198218997  3.2432722385211545 13.4897783500143316
  3.2551710125468856  3.2418750684943696 12.7387802648643991
  1.2418046261587563  1.6209375342471846 11.4969756387056421
  5.2685373989350124  1.6209375342471846 11.4969756387056421
  3.2269813443624042  3.2440911297957760 14.7766513500929850
  6.4913864027733492  1.6232479774343349 14.7140313890371921
  3.0721879086362178  3.2473923013088570 16.8103024953156002
  6.7304020813140770  3.2440354243451077 15.9331061374671332
  4.4749570725038135  1.6217308634740901 15.0572290524352539
  1.9972076388225708  1.6237922487200471 14.4731590549238387
  6.5024107148043004  3.2481765705149539 18.0030615944962946
  3.2248162340540087  1.5892177237090470 18.0452333550909074
  3.2600931689672770  3.2485115883681628 19.3613124372422938
  1.2055145767020909  1.6219551067922693 18.3337775920774497
  5.2536129361024368  1.6207274065491135 18.1801518506351414
  6.5103420250937685  6.4837501369887409  7.0000000000000009
  3.2551710125468842  6.4837501369887409  8.2418046261587570
  6.5103420250937685  4.8628126027415552  8.2418046261587570
  3.2551710125468829  6.4837501369887409 10.2551710125468851
  6.5103420250937685  6.4837501369887409  9.4836092523175139
  4.4969756387056403  4.8628126027415552  8.2418046261587570
  2.0133663863881277  4.8628126027415552  8.2418046261587570
  6.5103420250937685  6.4837501369887400 11.4969756387056421
  3.2551710125468829  4.8628126027415552 11.4969756387056421
  6.2568292362872944  6.4851022986724285 13.4931022408842072
  3.2551710125468856  6.4837501369887400 12.7387802648643991
  1.2418046261587563  4.8628126027415552 11.4969756387056421
  5.2685373989350124  4.8628126027415552 11.4969756387056421
  3.2318589364357346  6.4860380710466590 14.7628362253340519
  6.4911289566040065  4.8652551814782541 14.7140728819372537
  2.9547405401634972  6.4894123071078136 16.8035385619138005
  6.6880227535381147  6.4857518126465372 15.9480982046995514
  4.4750794404097816  4.8674142137784919 15.0573221718346169
  1.9974445190584904  4.8651401927432119 14.4729062119049932
  6.4971552360657538  6.4890458861992926 18.0301965454708260
  3.2238064935851036  4.9072540977949526 18.0451833978033562
  3.2968615961461478  6.4894925615559984 19.2815262458168100
  1.2055438088794705  4.8731711219540168 18.3346496946595892
  5.2540900030211732  4.8747536361570551 18.1844497184457694
  4.1154077178489255  3.2495781468506912 19.8399234358003049
