Cr  N  H 
 1.0000000000000000
     4.3887799999999997    0.0000000000000000    0.0000000000000000
     0.0000000000000000    8.2692700000000006    0.0000000000000000
     0.0000000000000000    0.0000000000000000   28.6456000000000017
 Cr  N   H  
  24  12   1
Cartesian
  1.1099200000000000  1.3493800000000000  4.3349399999999996
  1.1099200000000000  5.4840099999999996  1.9476100000000001
  1.1099200000000000  6.9198899999999997  4.3349399999999996
  1.1099200000000000  2.7852600000000001  1.9476100000000001
  1.1099200000000000  4.1346400000000001  4.3847800000000001
  1.1099200000000000  0.0000000000000000  1.9974600000000000
  3.2788599999999999  4.1346400000000001  2.7267700000000001
  3.2788599999999999  0.0000000000000000  0.3397400000000000
  3.2788599999999999  2.7852600000000001  0.3895800000000000
  3.2788599999999999  6.9198899999999997  2.7766199999999999
  3.2788599999999999  5.4840099999999996  0.3895800000000000
  3.2788599999999999  1.3493800000000000  2.7766199999999999
  0.8603600000000000  1.4768900000000000  8.9282599999999999
  1.1146199999999999  5.5216399999999997  6.6941199999999998
  1.3433999999999999  7.0523800000000003  8.8835300000000004
  1.0837200000000000  2.7464800000000000  6.6662200000000000
  0.9705000000000000  4.2676800000000004  8.8179800000000004
  1.0345000000000000 -0.0136100000000000  6.6719799999999996
  3.3169599999999999  4.1213199999999999  7.5755100000000004
  3.2911999999999999  0.0170900000000000  5.1119500000000002
  3.3040300000000000  2.7307299999999999  5.1502400000000002
  3.4092799999999999  6.7470999999999997  7.4168900000000004
  3.3258999999999999  5.4824500000000000  5.1266600000000002
  3.1669499999999999  1.3160799999999999  7.7683200000000001
  0.0000000000000000  4.1346400000000001  1.1687399999999999
  0.0000000000000000  0.0000000000000000  3.5557799999999999
  2.1943899999999998  5.5128700000000004  3.5557799999999999
  2.1943899999999998  1.3782399999999999  1.1687399999999999
  2.1943899999999998  2.7564000000000002  3.5557799999999999
  2.1943899999999998  6.8910299999999998  1.1687399999999999
 -0.0141300000000000  4.1171899999999999  5.9386200000000002
 -0.0647800000000000 -0.1224200000000000  8.2954200000000000
  2.3719299999999999  5.5350700000000002  8.4704499999999996
  2.2103400000000000  1.3616800000000000  5.9633099999999999
  2.0840600000000000  2.8349000000000002  8.3432800000000000
  2.2205300000000001  6.8946500000000004  5.9268999999999998
  3.0644000000000000  1.2255300000000000  9.4461300000000001
