Cr  N  H 
 1.0000000000000000
     4.3887799999999997    0.0000000000000000    0.0000000000000000
     0.0000000000000000    8.2692700000000006    0.0000000000000000
     0.0000000000000000    0.0000000000000000   28.6456000000000017
 Cr  N   H  
  24  12   1
Cartesian
  1.1099224619999999  1.3493794786000000  4.3349386479999996
  1.1099224619999999  5.4840144786000007  1.9476143440000000
  1.1099224619999999  6.9198905214000002  4.3349386479999996
  1.1099224619999999  2.7852555214000003  1.9476143440000000
  1.1099224619999999  4.1346350000000003  4.3847819920000006
  1.1099224619999999  0.0000000000000000  1.9974576880000001
  3.2788575379999996  4.1346350000000003  2.7267746640000001
  3.2788575379999996  0.0000000000000000  0.3397368160000001
  3.2788575379999996  2.7852555214000003  0.3895801600000000
  3.2788575379999996  6.9198905214000002  2.7766180080000002
  3.2788575379999996  5.4840144786000007  0.3895801600000000
  3.2788575379999996  1.3493794786000000  2.7766180080000002
  1.1074284053478300  1.3063636960355107  8.9138777936284264
  1.0960583393460333  5.5360133979635142  6.7219948382570607
  1.1077323756343085  6.9884468623945812  8.9220637341647411
  1.0984725738313244  2.7477310604907923  6.7141787307473217
  1.0154816267912141  4.1425727791609015  8.8855249630034407
  1.0192883218858617  0.0068705801037190  6.7418376683903993
  3.2820790301443599  4.1461388279648403  7.5515550900487742
  3.2905280955914864  0.0029908635452148  5.1121630964381275
  3.3137132516384531  2.7747549946794483  5.1499092666058468
  3.3083934961834980  6.8345244491925827  7.4747866147739837
  3.3126021252010163  5.5059826197826682  5.1498516049075391
  3.3080493964827986  1.4540059226634472  7.4715208969363021
  0.0000000000000000  4.1346350000000003  1.1687404800000001
  0.0000000000000000  0.0000000000000000  3.5557783280000002
  2.1943899999999998  5.5128742309000005  3.5557783280000002
  2.1943899999999998  1.3782392309000002  1.1687404800000001
  2.1943899999999998  2.7563957691000005  3.5557783280000002
  2.1943899999999998  6.8910307691000003  1.1687404800000001
  0.0079750191954166  4.1416764681259899  5.9519298228989364
 -0.2218183257182501  0.0110968521391239  8.3488067073909313
  2.2383846112358667  5.5419428575448197  8.4483560134548092
  2.1906717711953623  1.3772625783493486  5.9314930603852929
  2.2436170202282986  2.7472293002113042  8.4454714520994116
  2.1892118010681396  6.9019240223308431  5.9331630042534496
  1.6802875969877935  0.0179636371071208  9.9869022193061419
