Cr  N  H 
 1.0000000000000000
     4.3887799999999997    0.0000000000000000    0.0000000000000000
     0.0000000000000000    8.2692700000000006    0.0000000000000000
     0.0000000000000000    0.0000000000000000   28.6456000000000017
 Cr  N   H  
  24  12   1
Cartesian
  1.1099200000000000  1.3493800000000000  4.3349399999999996
  1.1099200000000000  5.4840099999999996  1.9476100000000001
  1.1099200000000000  6.9198899999999997  4.3349399999999996
  1.1099200000000000  2.7852600000000001  1.9476100000000001
  1.1099200000000000  4.1346400000000001  4.3847800000000001
  1.1099200000000000  0.0000000000000000  1.9974600000000000
  3.2788599999999999  4.1346400000000001  2.7267700000000001
  3.2788599999999999  0.0000000000000000  0.3397400000000000
  3.2788599999999999  2.7852600000000001  0.3895800000000000
  3.2788599999999999  6.9198899999999997  2.7766199999999999
  3.2788599999999999  5.4840099999999996  0.3895800000000000
  3.2788599999999999  1.3493800000000000  2.7766199999999999
  1.0353200000000000  1.4095800000000001  8.8848299999999991
  1.1369600000000000  5.5157699999999998  6.7596699999999998
  1.1144700000000001  6.9321299999999999  8.9017300000000006
  1.1466099999999999  2.7649499999999998  6.7137500000000001
  1.1199500000000000  4.1360900000000003  8.9411799999999992
  1.0303500000000001 -0.0070500000000000  6.7015099999999999
  3.3399600000000000  4.1427199999999997  7.5765300000000000
  3.2956400000000001 -0.0023000000000000  5.1142500000000002
  3.3357700000000001  2.7725100000000000  5.1396499999999996
  3.3305799999999999  6.8614100000000002  7.4755500000000001
  3.3296700000000001  5.4980300000000000  5.1451700000000002
  3.2978999999999998  1.3867100000000001  7.4875900000000000
  0.0000000000000000  4.1346400000000001  1.1687399999999999
  0.0000000000000000  0.0000000000000000  3.5557799999999999
  2.1943899999999998  5.5128700000000004  3.5557799999999999
  2.1943899999999998  1.3782399999999999  1.1687399999999999
  2.1943899999999998  2.7564000000000002  3.5557799999999999
  2.1943899999999998  6.8910299999999998  1.1687399999999999
  0.0290400000000000  4.1430899999999999  5.9640000000000004
 -0.1588400000000000  0.0002400000000000  8.4046599999999998
  2.3417800000000000  5.5400799999999997  8.4804700000000004
  2.1968600000000000  1.3755599999999999  5.9200600000000003
  2.3125900000000001  2.7410800000000002  8.4206800000000008
  2.2010200000000002  6.8866600000000000  5.9308100000000001
  1.2694900000000000  1.4779899999999999 10.5220199999999995
