Cr  N  H 
 1.0000000000000000
     4.7742599999999999    0.0000000000000000    0.0000000000000000
     0.0000000000000000    8.7775599999999994    0.0000000000000000
     0.0000000000000000    0.0000000000000000   33.0771000000000015
 Cr  N   H  
  24  12   1
Cartesian
  2.0225700000000000  3.2788599999999999  2.0673200000000000
  4.3597599999999996  3.2788599999999999  0.7177700000000000
  4.3597599999999996  3.2788599999999999  3.4168599999999998
  2.8016299999999998  1.1099200000000000  0.7177700000000000
  0.3645600000000000  1.1099200000000000  2.0673200000000000
  2.8016299999999998  1.1099200000000000  3.4168599999999998
  4.3297200000000000  3.3201000000000001  6.0878600000000000
  1.9938400000000001  3.3132400000000000  4.7885600000000004
  1.9877899999999999  3.1238700000000001  7.3747900000000000
  0.4509900000000000  1.0668800000000001  4.8381699999999999
  2.8626600000000000  1.0527500000000001  6.1429499999999999
  0.4536800000000000  1.4662400000000000  7.4091699999999996
  2.0225700000000000  7.6676399999999996  2.0673200000000000
  4.3597599999999996  7.6676399999999996  0.7177700000000000
  4.3597599999999996  7.6676399999999996  3.4168599999999998
  2.8016299999999998  5.4987000000000004  0.7177700000000000
  0.3645600000000000  5.4987000000000004  2.0673200000000000
  2.8016299999999998  5.4987000000000004  3.4168599999999998
  4.3458600000000001  7.7045300000000001  6.1810799999999997
  1.9567500000000000  7.7085499999999998  4.8399700000000001
  2.0822799999999999  7.4946099999999998  7.3877100000000002
  0.3965200000000000  5.4697100000000001  4.8020600000000000
  2.8326799999999999  5.4681800000000003  6.1596000000000002
  0.3080300000000000  5.4626799999999998  7.4771099999999997
  3.5806900000000002  0.0000000000000000  2.0673200000000000
  1.1935600000000000  2.1943899999999998  0.6889999999999999
  1.1935600000000000  2.1943899999999998  3.4456400000000000
  1.1760999999999999  8.8151299999999999  6.3257199999999996
  3.5897899999999998  2.1667900000000002  4.7727199999999996
  3.5449299999999999  2.2015099999999999  7.5913000000000004
  3.5806900000000002  4.3887799999999997  2.0673200000000000
  1.1935600000000000  6.5831700000000000  0.6889999999999999
  1.1935600000000000  6.5831700000000000  3.4456400000000000
  1.2186900000000001  4.3985399999999997  6.1609900000000000
  3.5776599999999998  6.5987200000000001  4.8010500000000000
  3.6362000000000001  6.5635300000000001  7.6730900000000002
  0.8279400000000000  3.3565299999999998  8.5607000000000006
