Os Pt Os Pt Os Pt Os  H 
 1.0000000000000000
     5.5018716106495971    0.0000000000000000    0.0000000000000000
    -2.7509358053247985    4.8251766585372025    0.0000000000000000
     0.0000000000000000    0.0000000000000000   24.5201192647871515
 Os  Pt  Os  Pt  Os  Pt  Os  H  
   1   2   2   2   2   2   1   1
Cartesian
  0.0000000000000000  0.0000000000000000  9.9999994382796871
 -1.3754679026623993  2.4125883292686012  9.9999994382796871
  1.3754679026623993  2.4125883292686012  9.9999994382796871
  2.7509358053247985  0.0000000000000000  9.9999994382796871
  2.7509358053247985  1.5683670831856664 12.2600596323935758
  1.3754679026623995  3.9809554124542674 12.2600596323935758
 -1.3754679026623990  3.9809554124542674 12.2600596323935758
  0.0000000000000000  1.5683670831856664 12.2600596323935758
  0.0541381167967894  3.0937454757017897 14.4547229765400473
  1.3758012087955083  0.7519260341615240 14.5147997943110596
  4.1267392533820519  0.7440116636019515 14.4960203744087828
  2.6977201790881593  3.0937757922867357 14.4549280382974601
  4.1279697414659022  3.1904369591537374 15.5964926936979893
