La As  O La As  O La As  O La As  O La As  O La As  O La As  O La As  O La As  O La As  O La As  O La As  O  H 
 1.0000000000000000
     8.2711159586599994    0.0000000000000000    0.0000000000000000
     0.0000000000000000    8.2711159586599994    0.0000000000000000
     0.0000000000000000    0.0000000000000000   30.3388949483249988
 La  As  O   La  As  O   La  As  O   La  As  O   La  As  O   La  As  O   La  As  O   La  As  O   La  As  O   La  As  O   La  As  O   La  As  O   H  
   1   1   3   1   1   3   1   1   3   1   1   3   1   1   3   1   1   3   1   1   3   1   1   3   1   1   3   1   1   3   1   1   3   1   1   3   1
Cartesian
  0.0000000000000000  0.0000000000000000 10.0000000000000000
  2.0677789896649998  2.0677789896649998 12.0677789896649994
  2.0677789896649998  2.0677789896649998 10.0000000000000000
  0.0000000000000000  2.0677789896649998 12.0677789896649994
  2.0677789896649998 -0.0000000000000001 12.0677789896649994
  4.1355579793299997  0.0000000000000000 10.0000000000000000
  6.2033369689950000  2.0677789896649998 12.0677789896649994
  6.2033369689950000  2.0677789896649998 10.0000000000000000
  4.1355579793299997  2.0677789896649998 12.0677789896649994
  6.2033369689950000 -0.0000000000000001 12.0677789896649994
  0.0000000000000000  4.1355579793299997 10.0000000000000000
  2.0677789896649998  6.2033369689950000 12.0677789896650012
  2.0677789896649998  6.2033369689950000 10.0000000000000000
  0.0000000000000000  6.2033369689950000 12.0677789896650012
  2.0677789896649998  4.1355579793299997 12.0677789896650012
  4.1355579793299997  4.1355579793299997 10.0000000000000000
  6.2033369689950000  6.2033369689950000 12.0677789896650012
  6.2033369689950000  6.2033369689950000 10.0000000000000000
  4.1355579793299997  6.2033369689950000 12.0677789896650012
  6.2033369689950000  4.1355579793299997 12.0677789896650012
  0.0000000000000000 -0.0000000000000003 14.1355579793299988
  2.0677789896649998  2.0677789896649994 16.2033369689950000
  2.0677789896649998  2.0677789896649994 14.1355579793299988
  0.0000000000000000  2.0677789896649994 16.2033369689950000
  2.0677789896649998 -0.0000000000000004 16.2033369689950000
  4.1355579793299997 -0.0000000000000003 14.1355579793299988
  6.2033369689950000  2.0677789896649994 16.2033369689950000
  6.2033369689950000  2.0677789896649994 14.1355579793299988
  4.1355579793299997  2.0677789896649994 16.2033369689950000
  6.2033369689950000 -0.0000000000000004 16.2033369689950000
  0.0000000000000000  4.1355579793299997 14.1355579793299988
  2.0677789896649998  6.2033369689950000 16.2033369689950000
  2.0677789896649998  6.2033369689950000 14.1355579793299988
  0.0000000000000000  6.2033369689950000 16.2033369689950000
  2.0677789896649998  4.1355579793299997 16.2033369689950000
  4.1355579793299997  4.1355579793299997 14.1355579793299988
  6.2033369689950000  6.2033369689950000 16.2033369689950000
  6.2033369689950000  6.2033369689950000 14.1355579793299988
  4.1355579793299997  6.2033369689950000 16.2033369689950000
  6.2033369689950000  4.1355579793299997 16.2033369689950000
  0.0525972571395711  0.2949351309084171 18.6889683099048085
  1.8788765054517365  2.7073937516543984 20.5404100237068192
  2.8551919538764854  2.3812054492744146 19.0147711820416632
  0.2744963096009589  2.4455361267606657 19.6171417149384766
  2.0262040940561734 -0.0020744922752756 19.9773498795853079
  4.1633575432672609  0.4530310216755205 18.7829823500832376
  5.7714167132200140  2.6515915748106131 20.8914361588922937
  5.6214109626570767  2.3796010342307734 19.0602996062807932
  4.4233181404087096  1.2726935996781377 21.2692721394438067
  6.3413177021983165 -0.2648275107832173 19.5297316058400625
  0.1653130442184037  4.6012793608858580 18.4722320233910722
  1.8361698177036025  6.6560682863950689 20.8270509719530423
  2.0154288273704699  6.1418035438178045 18.0186096244475813
  0.1966606357845771  6.4935188769309926 20.0990337554726182
  1.9477172407240868  4.5406483047918487 20.1203200986494792
  4.0729319360144682  4.4457363875808609 18.6728370716102496
  5.9338932095201544  6.4152559435368479 20.4358483578446553
  6.3388985523123633  5.3297162521522914 18.9834425801582327
  4.1496700456535063  6.5667215658578435 19.8747496304686351
  4.6909759409899179  4.0447320033189094 20.9709418053527870
  4.7422472657175261  0.7292986336549067 22.0188215001101355
