 K Ta  O  K Ta  O  K Ta  O  K Ta  O  K Ta  O  K Ta  O  K Ta  O  K Ta  O  K Ta  O  K Ta  O  K Ta  O  K Ta  O  H 
 1.0000000000000000
     8.0836793163199996    0.0000000000000000    0.0000000000000000
     0.0000000000000000    8.0836793163199996    0.0000000000000000
     0.0000000000000000    0.0000000000000000   30.1045991453999982
 K   Ta  O   K   Ta  O   K   Ta  O   K   Ta  O   K   Ta  O   K   Ta  O   K   Ta  O   K   Ta  O   K   Ta  O   K   Ta  O   K   Ta  O   K   Ta  O   H  
   1   1   3   1   1   3   1   1   3   1   1   3   1   1   3   1   1   3   1   1   3   1   1   3   1   1   3   1   1   3   1   1   3   1   1   3   1
Cartesian
  0.0000000000000000  0.0000000000000000 10.0000000000000000
  2.0209198290799999  2.0209198290799999 12.0209198290800003
  2.0209198290799999  2.0209198290799999 10.0000000000000000
  0.0000000000000000  2.0209198290799999 12.0209198290800003
  2.0209198290799999 -0.0000000000000001 12.0209198290800003
  4.0418396581599998  0.0000000000000000 10.0000000000000000
  6.0627594872399992  2.0209198290799999 12.0209198290800003
  6.0627594872399992  2.0209198290799999 10.0000000000000000
  4.0418396581599998  2.0209198290799999 12.0209198290800003
  6.0627594872399992 -0.0000000000000001 12.0209198290800003
  0.0000000000000000  4.0418396581599998 10.0000000000000000
  2.0209198290799999  6.0627594872399992 12.0209198290800003
  2.0209198290799999  6.0627594872399992 10.0000000000000000
  0.0000000000000000  6.0627594872399992 12.0209198290800003
  2.0209198290799999  4.0418396581599998 12.0209198290800003
  4.0418396581599998  4.0418396581599998 10.0000000000000000
  6.0627594872399992  6.0627594872399992 12.0209198290800003
  6.0627594872399992  6.0627594872399992 10.0000000000000000
  4.0418396581599998  6.0627594872399992 12.0209198290800003
  6.0627594872399992  4.0418396581599998 12.0209198290800003
  0.0000000000000000 -0.0000000000000002 14.0418396581600007
  2.0209198290799999  2.0209198290799995 16.0627594872400010
  2.0209198290799999  2.0209198290799995 14.0418396581600007
  0.0000000000000000  2.0209198290799995 16.0627594872400010
  2.0209198290799999 -0.0000000000000004 16.0627594872400010
  4.0418396581599998 -0.0000000000000002 14.0418396581600007
  6.0627594872399992  2.0209198290799995 16.0627594872400010
  6.0627594872399992  2.0209198290799995 14.0418396581600007
  4.0418396581599998  2.0209198290799995 16.0627594872400010
  6.0627594872399992 -0.0000000000000004 16.0627594872400010
  0.0000000000000000  4.0418396581599998 14.0418396581600007
  2.0209198290799999  6.0627594872399992 16.0627594872400010
  2.0209198290799999  6.0627594872399992 14.0418396581600007
  0.0000000000000000  6.0627594872399992 16.0627594872400010
  2.0209198290799999  4.0418396581599998 16.0627594872400010
  4.0418396581599998  4.0418396581599998 14.0418396581600007
  6.0627594872399992  6.0627594872399992 16.0627594872400010
  6.0627594872399992  6.0627594872399992 14.0418396581600007
  4.0418396581599998  6.0627594872399992 16.0627594872400010
  6.0627594872399992  4.0418396581599998 16.0627594872400010
  0.0000040604784165 -0.0192894052444330 18.0921107617748262
  1.9315343433377743  2.0601989661932838 20.1073517802254713
  2.0622112170632922  2.0512543150524536 18.2668478524636626
  0.0000101669202071  2.0749761085478071 20.3249266562805069
  2.0057436482575448  0.0379611425012018 20.3591022730841331
  4.0418019978075872 -0.0026643064287662 18.0625747988533831
  6.1520322225182298  2.0601174148889836 20.1068415960043261
  6.0214701681582081  2.0512701542799596 18.2671299858297118
  4.0418093019773718  1.8718163512412240 20.7080142787255923
  6.0779496576856538  0.0379717884765182 20.3591062161957872
 -0.0000067983605358  4.0950311332069811 18.0801706270067051
  2.0266755082440557  6.0852450564507858 20.1111865615446916
  2.0490810347297153  6.0921854124577894 18.2594750274023134
 -0.0000083741715332  6.0378224644543321 20.3353560764021672
  2.0746065440672758  4.0367768652824809 20.3341857394617520
  4.0418110914068590  4.0745882217878071 18.0903667652884543
  6.0570303075202547  6.0853190313972849 20.1115474499543403
  6.0346376671961588  6.0921371048490469 18.2592176880905761
  4.0418308162456844  6.1145544180616067 20.4080100350967086
  6.0090372367663090  4.0366742764793839 20.3341921617765458
  4.0418497419024293  0.9092424570207854 20.9385151135239731
