Ca Ti  O Ca Ti  O Ca Ti  O Ca Ti  O Ca Ti  O Ca Ti  O Ca Ti  O Ca Ti  O Ca Ti  O Ca Ti  O Ca Ti  O Ca Ti  O  H 
 1.0000000000000000
     7.8267741718600004    0.0000000000000000    0.0000000000000000
     0.0000000000000000    7.8267741718600004    0.0000000000000000
     0.0000000000000000    0.0000000000000000   29.7834677148250009
 Ca  Ti  O   Ca  Ti  O   Ca  Ti  O   Ca  Ti  O   Ca  Ti  O   Ca  Ti  O   Ca  Ti  O   Ca  Ti  O   Ca  Ti  O   Ca  Ti  O   Ca  Ti  O   Ca  Ti  O   H  
   1   1   3   1   1   3   1   1   3   1   1   3   1   1   3   1   1   3   1   1   3   1   1   3   1   1   3   1   1   3   1   1   3   1   1   3   1
Cartesian
  0.0000000000000000  0.0000000000000000 10.0000000000000000
  1.9566935429650001  1.9566935429649999 11.9566935429650005
  1.9566935429650001  1.9566935429650001 10.0000000000000000
  0.0000000000000000  1.9566935429649999 11.9566935429650005
  1.9566935429650001 -0.0000000000000001 11.9566935429650005
  3.9133870859300002  0.0000000000000000 10.0000000000000000
  5.8700806288949998  1.9566935429649999 11.9566935429650005
  5.8700806288949998  1.9566935429650001 10.0000000000000000
  3.9133870859300002  1.9566935429649999 11.9566935429650005
  5.8700806288949998 -0.0000000000000001 11.9566935429650005
  0.0000000000000000  3.9133870859300002 10.0000000000000000
  1.9566935429650001  5.8700806288949998 11.9566935429650005
  1.9566935429650001  5.8700806288949998 10.0000000000000000
  0.0000000000000000  5.8700806288949998 11.9566935429650005
  1.9566935429650001  3.9133870859300002 11.9566935429650005
  3.9133870859300002  3.9133870859300002 10.0000000000000000
  5.8700806288949998  5.8700806288949998 11.9566935429650005
  5.8700806288949998  5.8700806288949998 10.0000000000000000
  3.9133870859300002  5.8700806288949998 11.9566935429650005
  5.8700806288949998  3.9133870859300002 11.9566935429650005
  0.0000000000000000 -0.0000000000000002 13.9133870859300011
  1.9566935429650001  1.9566935429649996 15.8700806288949998
  1.9566935429650001  1.9566935429649999 13.9133870859300011
  0.0000000000000000  1.9566935429649996 15.8700806288949998
  1.9566935429650001 -0.0000000000000004 15.8700806288949998
  3.9133870859300002 -0.0000000000000002 13.9133870859300011
  5.8700806288949998  1.9566935429649996 15.8700806288949998
  5.8700806288949998  1.9566935429649999 13.9133870859300011
  3.9133870859300002  1.9566935429649996 15.8700806288949998
  5.8700806288949998 -0.0000000000000004 15.8700806288949998
  0.0000000000000000  3.9133870859299997 13.9133870859300011
  1.9566935429650001  5.8700806288949998 15.8700806288949998
  1.9566935429650001  5.8700806288949998 13.9133870859300011
  0.0000000000000000  5.8700806288949998 15.8700806288949998
  1.9566935429650001  3.9133870859299997 15.8700806288949998
  3.9133870859300002  3.9133870859299997 13.9133870859300011
  5.8700806288949998  5.8700806288949998 15.8700806288949998
  5.8700806288949998  5.8700806288949998 13.9133870859300011
  3.9133870859300002  5.8700806288949998 15.8700806288949998
  5.8700806288949998  3.9133870859299997 15.8700806288949998
  0.0002435711365298 -0.0854392791461332 18.1913917090736810
  1.9337470905110088  2.0108007265776169 19.7016225047895759
  2.2604574864526370  1.8828077641631096 17.9304352336804271
 -0.0000717605801338  1.9870343402293156 19.5414496927716037
  1.8520406597044980 -0.0486672195474146 19.8958110463077666
  3.9136515413564616  0.0084983121354922 17.5624073671550782
  5.8927825434195231  2.0104882741839862 19.7017657728408686
  5.5662630250488485  1.8826983426582826 17.9296527195987956
  3.9131902551401989  1.6962964570508103 20.4524856519212257
  5.9734740017884382 -0.0485136202122317 19.8954868112864176
  0.0002456334903955  4.0568536398725064 18.0738018478456226
  2.0273498507582088  5.9392442392259408 19.7374861354365727
  2.0785615040674665  5.8656456331875662 17.9008796038933546
 -0.0015311905946224  5.7365326130981318 19.6964074420596091
  2.0693284342355533  3.8202286876566642 19.7928968491060111
  3.9136879061567256  3.9610521673333339 17.7440616954501813
  5.8023229589101328  5.9393389204836620 19.7371708353976238
  5.7479945330081037  5.8657158252956441 17.9004776760262807
  3.9129316573417565  5.9036164182768456 20.0182862676475075
  5.7567997228880028  3.8207511063901403 19.7923379251296296
  3.9132954075142221  0.7462528782168205 20.7102998305302393
