La Si  O La Si  O La Si  O La Si  O La Si  O La Si  O La Si  O La Si  O La Si  O La Si  O La Si  O La Si  O  H 
 1.0000000000000000
     7.7490176126800003    0.0000000000000000    0.0000000000000000
     0.0000000000000000    7.7490176126800003    0.0000000000000000
     0.0000000000000000    0.0000000000000000   29.6862720158500011
 La  Si  O   La  Si  O   La  Si  O   La  Si  O   La  Si  O   La  Si  O   La  Si  O   La  Si  O   La  Si  O   La  Si  O   La  Si  O   La  Si  O   H  
   1   1   3   1   1   3   1   1   3   1   1   3   1   1   3   1   1   3   1   1   3   1   1   3   1   1   3   1   1   3   1   1   3   1   1   3   1
Cartesian
  0.0000000000000000  0.0000000000000000 10.0000000000000000
  1.9372544031700001  1.9372544031699999 11.9372544031699999
  1.9372544031700001  1.9372544031700001 10.0000000000000000
  0.0000000000000000  1.9372544031699999 11.9372544031699999
  1.9372544031700001 -0.0000000000000001 11.9372544031699999
  3.8745088063400002  0.0000000000000000 10.0000000000000000
  5.8117632095100005  1.9372544031699999 11.9372544031699999
  5.8117632095100005  1.9372544031700001 10.0000000000000000
  3.8745088063400002  1.9372544031699999 11.9372544031699999
  5.8117632095100005 -0.0000000000000001 11.9372544031699999
  0.0000000000000000  3.8745088063400002 10.0000000000000000
  1.9372544031700001  5.8117632095099996 11.9372544031699999
  1.9372544031700001  5.8117632095100005 10.0000000000000000
  0.0000000000000000  5.8117632095099996 11.9372544031699999
  1.9372544031700001  3.8745088063400002 11.9372544031699999
  3.8745088063400002  3.8745088063400002 10.0000000000000000
  5.8117632095100005  5.8117632095099996 11.9372544031699999
  5.8117632095100005  5.8117632095100005 10.0000000000000000
  3.8745088063400002  5.8117632095099996 11.9372544031699999
  5.8117632095100005  3.8745088063400002 11.9372544031699999
  0.0000000000000000 -0.0000000000000002 13.8745088063399997
  1.9372544031700001  1.9372544031699996 15.8117632095100014
  1.9372544031700001  1.9372544031699999 13.8745088063399997
  0.0000000000000000  1.9372544031699996 15.8117632095100014
  1.9372544031700001 -0.0000000000000004 15.8117632095100014
  3.8745088063400002 -0.0000000000000002 13.8745088063399997
  5.8117632095100005  1.9372544031699996 15.8117632095100014
  5.8117632095100005  1.9372544031699999 13.8745088063399997
  3.8745088063400002  1.9372544031699996 15.8117632095100014
  5.8117632095100005 -0.0000000000000004 15.8117632095100014
  0.0000000000000000  3.8745088063399997 13.8745088063399997
  1.9372544031700001  5.8117632095099996 15.8117632095100014
  1.9372544031700001  5.8117632095100005 13.8745088063399997
  0.0000000000000000  5.8117632095099996 15.8117632095100014
  1.9372544031700001  3.8745088063399997 15.8117632095100014
  3.8745088063400002  3.8745088063399997 13.8745088063399997
  5.8117632095100005  5.8117632095099996 15.8117632095100014
  5.8117632095100005  5.8117632095100005 13.8745088063399997
  3.8745088063400002  5.8117632095099996 15.8117632095100014
  5.8117632095100005  3.8745088063399997 15.8117632095100014
  0.1864275014679304  0.0850560503701252 17.8504884099301897
  1.0041965185194890  1.1107909095137081 20.8026539033911604
  1.9111193720063322  1.8773358077165749 17.4751802796432223
 -0.0770082462706900  1.9605528892031747 19.5579957923807086
  1.8905846572638105  0.2685483895060021 19.6728566193170344
  3.7330441933337961 -0.0166838682565866 18.2914076601377751
  5.9227488431561577  2.0372452899269908 19.3671475849232380
  5.8437846930273993  1.7899483363378734 17.6140356173113339
  4.0771332832821052  2.0917787994792478 19.4190291997474169
  5.7578539986280619  0.4271489693051888 19.8973675751490404
  0.2322582857241449  4.2560568472111067 18.5956383000982655
  2.7855292207200497  5.3436316194358673 20.8421495499034322
  1.9322299886394925  5.8774790461306035 17.5113990712378467
 -0.2426060357914768  6.2247506993253436 19.6627286952992328
  2.1241973174202027  4.1316030829304484 19.8711842676185491
  3.9781550066818632  4.1916975384860624 18.1008607941447437
  6.7594291641905295  7.0538781052504786 20.9070436531547870
  5.7667231296475876  5.8420893724497596 17.4921814112363592
  3.8593607640026564  5.9375140940101172 19.6838119165963903
  5.9027573913732887  3.6786946358509161 19.5005673591049771
  3.6142571908632957  2.1818094555514089 20.2814519904871382
