Sr Si  O Sr Si  O Sr Si  O Sr Si  O Sr Si  O Sr Si  O Sr Si  O Sr Si  O Sr Si  O Sr Si  O Sr Si  O Sr Si  O  H 
 1.0000000000000000
     7.4476664752800001    0.0000000000000000    0.0000000000000000
     0.0000000000000000    7.4476664752800001    0.0000000000000000
     0.0000000000000000    0.0000000000000000   29.3095830941000024
 Sr  Si  O   Sr  Si  O   Sr  Si  O   Sr  Si  O   Sr  Si  O   Sr  Si  O   Sr  Si  O   Sr  Si  O   Sr  Si  O   Sr  Si  O   Sr  Si  O   Sr  Si  O   H  
   1   1   3   1   1   3   1   1   3   1   1   3   1   1   3   1   1   3   1   1   3   1   1   3   1   1   3   1   1   3   1   1   3   1   1   3   1
Cartesian
  0.0000000000000000  0.0000000000000000 10.0000000000000000
  1.8619166188200000  1.8619166188199998 11.8619166188200005
  1.8619166188200000  1.8619166188200000 10.0000000000000000
  0.0000000000000000  1.8619166188199998 11.8619166188200005
  1.8619166188200000 -0.0000000000000001 11.8619166188200005
  3.7238332376400001  0.0000000000000000 10.0000000000000000
  5.5857498564599997  1.8619166188199998 11.8619166188200005
  5.5857498564599997  1.8619166188200000 10.0000000000000000
  3.7238332376400001  1.8619166188199998 11.8619166188200005
  5.5857498564599997 -0.0000000000000001 11.8619166188200005
  0.0000000000000000  3.7238332376400001 10.0000000000000000
  1.8619166188200000  5.5857498564599997 11.8619166188200005
  1.8619166188200000  5.5857498564599997 10.0000000000000000
  0.0000000000000000  5.5857498564599997 11.8619166188200005
  1.8619166188200000  3.7238332376400001 11.8619166188200005
  3.7238332376400001  3.7238332376400001 10.0000000000000000
  5.5857498564599997  5.5857498564599997 11.8619166188200005
  5.5857498564599997  5.5857498564599997 10.0000000000000000
  3.7238332376400001  5.5857498564599997 11.8619166188200005
  5.5857498564599997  3.7238332376400001 11.8619166188200005
  0.0000000000000000 -0.0000000000000002 13.7238332376400010
  1.8619166188200000  1.8619166188199996 15.5857498564600014
  1.8619166188200000  1.8619166188199998 13.7238332376400010
  0.0000000000000000  1.8619166188199996 15.5857498564600014
  1.8619166188200000 -0.0000000000000003 15.5857498564599997
  3.7238332376400001 -0.0000000000000002 13.7238332376400010
  5.5857498564599997  1.8619166188199996 15.5857498564600014
  5.5857498564599997  1.8619166188199998 13.7238332376400010
  3.7238332376400001  1.8619166188199996 15.5857498564600014
  5.5857498564599997 -0.0000000000000003 15.5857498564599997
  0.0000000000000000  3.7238332376399996 13.7238332376400010
  1.8619166188200000  5.5857498564599997 15.5857498564600014
  1.8619166188200000  5.5857498564599997 13.7238332376400010
  0.0000000000000000  5.5857498564599997 15.5857498564600014
  1.8619166188200000  3.7238332376399996 15.5857498564600014
  3.7238332376400001  3.7238332376399996 13.7238332376400010
  5.5857498564599997  5.5857498564599997 15.5857498564600014
  5.5857498564599997  5.5857498564599997 13.7238332376400010
  3.7238332376400001  5.5857498564599997 15.5857498564600014
  5.5857498564599997  3.7238332376399996 15.5857498564600014
 -0.0000803332273642 -0.0348724599553514 17.5098764127738029
  1.7142673163199329  1.8889513631015269 19.2158934358496261
  1.8893070934650094  1.8590212059441651 17.4743145816290557
 -0.0004119545260648  1.8630575738199557 19.3671013553225677
  1.8609774967013111  0.0760517339135904 19.4187819860802868
  3.7237096934493588 -0.0088250794202601 17.5273733246498544
  5.7331339865834376  1.8891041428559805 19.2159571040714141
  5.5583089042744955  1.8588943263175797 17.4742265187138450
  3.7242652892096602  1.7692410369803346 19.6807012502985117
  5.5867919147561702  0.0756597055039272 19.4187486207677900
 -0.0001340478698152  3.7644424867941395 17.4987328175343286
  1.8526980551270076  5.5970387629471166 19.2642377636629121
  1.8615079563580315  5.5870521125281893 17.4900191536701257
  0.0000470002157404  5.5770523774062051 19.4238912616391310
  1.8770492602181807  3.6341019916328197 19.3969107761688271
  3.7238530572659938  3.7348569446593696 17.5429167421881900
  5.5948750163598273  5.5975287364213164 19.2641929181242979
  5.5861614071603523  5.5870568988077443 17.4899912577441867
  3.7237977589713416  5.5974348589532905 19.4279277895677893
  5.5706412150891085  3.6342215833095568 19.3968309912846735
  3.7239296866650022  0.8849692038189008 20.1201252517742404
