La Os  O La Os  O La Os  O La Os  O La Os  O La Os  O La Os  O La Os  O La Os  O La Os  O La Os  O La Os  O  H 
 1.0000000000000000
     8.0216811935999992    0.0000000000000000    0.0000000000000000
     0.0000000000000000    8.0216811935999992    0.0000000000000000
     0.0000000000000000    0.0000000000000000   30.0271014920000034
 La  Os  O   La  Os  O   La  Os  O   La  Os  O   La  Os  O   La  Os  O   La  Os  O   La  Os  O   La  Os  O   La  Os  O   La  Os  O   La  Os  O   H  
   1   1   3   1   1   3   1   1   3   1   1   3   1   1   3   1   1   3   1   1   3   1   1   3   1   1   3   1   1   3   1   1   3   1   1   3   1
Cartesian
  0.0000000000000000  0.0000000000000000 10.0000000000000000
  2.0054202983999998  2.0054202983999998 12.0054202984000007
  2.0054202983999998  2.0054202983999998 10.0000000000000000
  0.0000000000000000  2.0054202983999998 12.0054202984000007
  2.0054202983999998 -0.0000000000000001 12.0054202984000007
  4.0108405967999996  0.0000000000000000 10.0000000000000000
  6.0162608951999994  2.0054202983999998 12.0054202984000007
  6.0162608951999994  2.0054202983999998 10.0000000000000000
  4.0108405967999996  2.0054202983999998 12.0054202984000007
  6.0162608951999994 -0.0000000000000001 12.0054202984000007
  0.0000000000000000  4.0108405967999996 10.0000000000000000
  2.0054202983999998  6.0162608951999994 12.0054202984000007
  2.0054202983999998  6.0162608951999994 10.0000000000000000
  0.0000000000000000  6.0162608951999994 12.0054202984000007
  2.0054202983999998  4.0108405967999996 12.0054202984000007
  4.0108405967999996  4.0108405967999996 10.0000000000000000
  6.0162608951999994  6.0162608951999994 12.0054202984000007
  6.0162608951999994  6.0162608951999994 10.0000000000000000
  4.0108405967999996  6.0162608951999994 12.0054202984000007
  6.0162608951999994  4.0108405967999996 12.0054202984000007
  0.0000000000000000 -0.0000000000000002 14.0108405967999996
  2.0054202983999998  2.0054202983999994 16.0162608951999985
  2.0054202983999998  2.0054202983999994 14.0108405967999996
  0.0000000000000000  2.0054202983999994 16.0162608951999985
  2.0054202983999998 -0.0000000000000004 16.0162608951999985
  4.0108405967999996 -0.0000000000000002 14.0108405967999996
  6.0162608951999994  2.0054202983999994 16.0162608951999985
  6.0162608951999994  2.0054202983999994 14.0108405967999996
  4.0108405967999996  2.0054202983999994 16.0162608951999985
  6.0162608951999994 -0.0000000000000004 16.0162608951999985
  0.0000000000000000  4.0108405967999996 14.0108405967999996
  2.0054202983999998  6.0162608951999994 16.0162608951999985
  2.0054202983999998  6.0162608951999994 14.0108405967999996
  0.0000000000000000  6.0162608951999994 16.0162608951999985
  2.0054202983999998  4.0108405967999996 16.0162608951999985
  4.0108405967999996  4.0108405967999996 14.0108405967999996
  6.0162608951999994  6.0162608951999994 16.0162608951999985
  6.0162608951999994  6.0162608951999994 14.0108405967999996
  4.0108405967999996  6.0162608951999994 16.0162608951999985
  6.0162608951999994  4.0108405967999996 16.0162608951999985
  0.0060297331392852  1.9232360515515343 19.1755129832369882
  2.0313953476471847  3.9362856058959155 20.9317342256773706
  2.1421485083831344  2.1447530307872302 18.0132390987559390
 -0.0075225112386285  3.9380569568162125 20.2667249415980386
  2.0343165008401880  1.9790483748146643 20.9285070381042395
  4.4928093986021675 -0.0147627470635130 18.2208120688143396
  5.9875102972887930  3.9620671915595782 20.9470681124655904
  5.8879457237858883  1.8591814234203465 18.0138922313799199
  4.0135100623176587  3.9940746879930953 21.5835492007638088
  6.0302873049925143  2.0540221045812492 20.9360929738320074
  0.0246350910083705  6.0155107349391121 19.2209909030873582
  2.1174989658037746  7.9972520455006340 20.8811293775182953
  2.1416443709563624  5.8714306464117714 18.0135389916659179
  0.0133133034304099  7.9989341810213359 20.7093303724315732
  1.9695949369837853  5.8934198011892978 20.9317397562591516
  3.5231243789958420  4.0031114646711314 18.2376521262045195
  5.9444989003147208  7.9763297420304005 20.8998545934544779
  5.8889029450279757  6.1544932948178612 18.0120393753231554
  4.0149317161791114  7.9597225766300097 20.9080019926038538
  6.0454275049406805  5.8752072927053201 20.9414515308568205
  4.0147088166288496  4.2405926405345022 22.5344916073720505
