Fe  N  H 
 1.0000000000000000
     4.3045799999999996    0.0000000000000000    0.0000000000000000
     0.0000000000000000    8.0405899999999999    0.0000000000000000
     0.0000000000000000    0.0000000000000000   27.8534000000000006
 Fe  N   H  
  24   8   1
Cartesian
  0.0000000000000000  4.0202900000000001  3.4273600000000002
  0.0000000000000000  0.0000000000000000  1.1063400000000001
  2.1522899999999998  1.3088500000000001  0.3506700000000000
  2.1522899999999998  5.3291399999999998  2.6719800000000000
  2.1522899999999998  6.7317400000000003  0.3506700000000000
  2.1522899999999998  2.7114500000000001  2.6719800000000000
  2.1522899999999998  4.0202900000000001  0.4049900000000000
  2.1522899999999998  0.0000000000000000  2.7260100000000000
  0.0000000000000000  2.7114500000000001  1.1606500000000000
  0.0000000000000000  6.7317400000000003  3.4816799999999999
  0.0000000000000000  5.3291399999999998  1.1606500000000000
  0.0000000000000000  1.3088500000000001  3.4816799999999999
  0.0000000000000000  4.0202900000000001  8.0207999999999995
  0.0000000000000000  0.0000000000000000  5.7239100000000001
  2.1564199999999998  1.3091500000000000  4.9973000000000001
  2.1600299999999999  5.2781700000000003  7.3376299999999999
  2.1481599999999998  6.7314400000000001  4.9973000000000001
  2.1445500000000002  2.7624200000000001  7.3376299999999999
  2.1522899999999998  4.0202900000000001  5.0263900000000001
  2.1522899999999998  0.0000000000000000  7.2621099999999998
 -0.0004200000000000  2.7105800000000002  5.7906399999999998
 -0.1232700000000000  6.6769100000000003  8.0404199999999992
  0.0004200000000000  5.3300099999999997  5.7906399999999998
  0.1232700000000000  1.3636800000000000  8.0404199999999992
  3.2284299999999999  5.3604200000000004  4.2373399999999997
  3.2284299999999999  1.3401300000000000  1.9163100000000000
  1.0761400000000001  2.6801699999999999  4.2373399999999997
  1.0761400000000001  6.7004599999999996  1.9163100000000000
  3.3113700000000001  5.3022600000000004  8.7424599999999995
  3.2333599999999998  1.3713200000000001  6.6097500000000000
  0.9932100000000000  2.7383299999999999  8.7424599999999995
  1.0712200000000001  6.6692700000000000  6.6097500000000000
  0.0000000000000000  0.0000000000000000  9.0006299999999992
