Ca Ba  O Ca Ba  O Ca Ba  O Ca Ba  O Ca Ba  O Ca Ba  O Ca Ba  O Ca Ba  O Ca Ba  O Ca Ba  O Ca Ba  O Ca Ba  O  H 
 1.0000000000000000
     8.3201969975400001    0.0000000000000000    0.0000000000000000
     0.0000000000000000    8.3201969975400001    0.0000000000000000
     0.0000000000000000    0.0000000000000000   30.4002462469249970
 Ca  Ba  O   Ca  Ba  O   Ca  Ba  O   Ca  Ba  O   Ca  Ba  O   Ca  Ba  O   Ca  Ba  O   Ca  Ba  O   Ca  Ba  O   Ca  Ba  O   Ca  Ba  O   Ca  Ba  O   H  
   1   1   3   1   1   3   1   1   3   1   1   3   1   1   3   1   1   3   1   1   3   1   1   3   1   1   3   1   1   3   1   1   3   1   1   3   1
Cartesian
  0.0000000000000000  0.0000000000000000 10.0000000000000000
  2.0800492493850000  2.0800492493850000 12.0800492493850005
  2.0800492493850000  2.0800492493850000 10.0000000000000000
  0.0000000000000000  2.0800492493850000 12.0800492493850005
  2.0800492493850000 -0.0000000000000001 12.0800492493850005
  4.1600984987700000  0.0000000000000000 10.0000000000000000
  6.2401477481549996  2.0800492493850000 12.0800492493850005
  6.2401477481549996  2.0800492493850000 10.0000000000000000
  4.1600984987700000  2.0800492493850000 12.0800492493850005
  6.2401477481549996 -0.0000000000000001 12.0800492493850005
  0.0000000000000000  4.1600984987700000 10.0000000000000000
  2.0800492493850000  6.2401477481549996 12.0800492493850005
  2.0800492493850000  6.2401477481549996 10.0000000000000000
  0.0000000000000000  6.2401477481549996 12.0800492493850005
  2.0800492493850000  4.1600984987700000 12.0800492493850005
  4.1600984987700000  4.1600984987700000 10.0000000000000000
  6.2401477481549996  6.2401477481549996 12.0800492493850005
  6.2401477481549996  6.2401477481549996 10.0000000000000000
  4.1600984987700000  6.2401477481549996 12.0800492493850005
  6.2401477481549996  4.1600984987700000 12.0800492493850005
  0.0000000000000000 -0.0000000000000003 14.1600984987700009
  2.0800492493850000  2.0800492493849996 16.2401477481549996
  2.0800492493850000  2.0800492493849996 14.1600984987700009
  0.0000000000000000  2.0800492493849996 16.2401477481549996
  2.0800492493850000 -0.0000000000000004 16.2401477481549996
  4.1600984987700000 -0.0000000000000003 14.1600984987700009
  6.2401477481549996  2.0800492493849996 16.2401477481549996
  6.2401477481549996  2.0800492493849996 14.1600984987700009
  4.1600984987700000  2.0800492493849996 16.2401477481549996
  6.2401477481549996 -0.0000000000000004 16.2401477481549996
  0.0000000000000000  4.1600984987700000 14.1600984987700009
  2.0800492493850000  6.2401477481549996 16.2401477481549996
  2.0800492493850000  6.2401477481549996 14.1600984987700009
  0.0000000000000000  6.2401477481549996 16.2401477481549996
  2.0800492493850000  4.1600984987700000 16.2401477481549996
  4.1600984987700000  4.1600984987700000 14.1600984987700009
  6.2401477481549996  6.2401477481549996 16.2401477481549996
  6.2401477481549996  6.2401477481549996 14.1600984987700009
  4.1600984987700000  6.2401477481549996 16.2401477481549996
  6.2401477481549996  4.1600984987700000 16.2401477481549996
  0.0002714562515866  0.0229355854002413 19.7787731722295739
  1.9046435946483413  2.2235025783286999 21.9057409334386968
  2.0878844875988594  2.0742406037531627 17.6479893734905460
 -0.0001663056874831  2.1140464366694158 20.7422766885312555
  2.1476992907310968 -0.0055674912875672 20.6898431522786126
  4.1613823148787228 -0.2022766493955959 19.5255617838295557
  6.4126837147210933  2.2192857649744839 21.9047714810918528
  6.2325031071807917  2.0742913148408211 17.6477090592120867
  4.1601475317195487  2.0251714163599068 20.6870633446752379
  6.1737458942033312 -0.0055896604661358 20.6890940678582140
 -0.0012804713065269  4.2281410727261779 19.8111085779410701
  2.1086565782706450  6.3835806161962383 21.8190851104056414
  2.0920324985282823  6.2453615321693761 17.6481170430398997
  0.0001358339933744  6.2859256786370583 20.7215963819072506
  2.0842627174740787  4.0585735079569663 20.8197664861311438
  4.1595038830466136  4.1570760022548248 19.8183544733987382
  6.2117763986484444  6.3815100416860009 21.8188308801087665
  6.2284007112321937  6.2454762376517703 17.6480738591322535
  4.1599139247229395  6.2076789367217868 20.5738764250578789
  6.2331600228738209  4.0594465636231147 20.8189561458624475
  4.1539401467495560  1.2250624152146319 21.2510911545926753
