Sc Ag Sc Ag Sc Ag Sc  H 
 1.0000000000000000
     5.9906125760629143    0.0000000000000000    0.0000000000000000
     2.0229728568404806    5.6387066009662092    0.0000000000000000
     0.0000000000000000    0.0000000000000000   24.8990642379703928
 Sc  Ag  Sc  Ag  Sc  Ag  Sc  H  
   1   2   2   2   2   2   1   1
Cartesian
  0.0000000000000000  0.0000000000000000  9.9999991294649977
  1.0114864284202403  2.8193533004831046  9.9999991294649977
  2.9953062880314572  0.0000000000000000  9.9999991294649977
  4.0067927164516970  2.8193533004831046  9.9999991294649977
  5.9906124223751869  4.2152549682918385 12.4495321189851964
  4.9791259939549466  1.3959016678087341 12.4495321189851964
  2.9953061343437302  4.2152549682918385 12.4495321189851964
  1.9838197059234899  1.3959016678087341 12.4495321189851964
  4.0118174198644221  2.6807995601161165 14.9183357641714363
  4.8274940867816909  5.5048044326677958 14.7591041568482204
  7.0706708462084826  2.8672764141429194 14.7656885400924995
  7.8848932557529761  5.6897360498989631 14.9183187830096262
  4.9408239869279811  1.3691069513052312 16.0757125182873750
