Mo  N  H 
 1.0000000000000000
     5.6628600000000002    0.0000000000000000    0.0000000000000000
     0.0000000000000000    9.9302299999999999    0.0000000000000000
     0.0000000000000000    0.0000000000000000   28.6661000000000001
 Mo  N   H  
  32  32   1
Cartesian
  1.4265300000000001  5.0858699999999999  5.0687400000000000
  1.4265300000000001  0.1207500000000000  2.2021299999999999
  4.2579599999999997  2.5429300000000001  0.6644800000000000
  4.2579599999999997  7.5080499999999999  3.5310899999999998
  4.2579599999999997  2.5429300000000001  3.7400699999999998
  4.2579599999999997  7.5080499999999999  0.8734600000000000
  1.4265300000000001  7.3872999999999998  0.6644800000000000
  1.4265300000000001  2.4221800000000000  3.5310899999999998
  4.2579599999999997  4.8443600000000000  5.0687400000000000
  4.2579599999999997  9.8094800000000006  2.2021299999999999
  1.4265300000000001  7.3872999999999998  3.7400699999999998
  1.4265300000000001  2.4221800000000000  0.8734600000000000
  4.2186000000000003  4.9651100000000001  2.2021299999999999
  4.2186000000000003  0.0000000000000000  5.0687400000000000
  1.3871700000000000  4.9651100000000001  2.2021299999999999
  1.3871700000000000  0.0000000000000000  5.0687400000000000
  1.4262400000000000  5.1013400000000004 10.6080000000000005
  1.3972599999999999  0.1182700000000000  7.9140800000000002
  4.2537500000000001  2.5419100000000001  6.4245599999999996
  4.2414100000000001  7.4789800000000000  9.3422800000000006
  4.2427700000000002  2.5604800000000001  9.5403300000000009
  4.2527400000000002  7.5122499999999999  6.6005500000000001
  1.4209600000000000  7.3843699999999997  6.4266300000000003
  1.3940800000000000  2.4605100000000002  9.3286999999999995
  4.1809200000000004  4.9092900000000004 10.6084499999999995
  4.2281899999999997  9.8307400000000005  7.9062000000000001
  1.4172600000000000  7.4140499999999996  9.5324799999999996
  1.4220699999999999  2.4300500000000000  6.6010000000000000
  4.2187099999999997  4.9344000000000001  7.9313799999999999
  4.1700600000000003  9.8329599999999999 10.5267499999999998
  1.3803799999999999  4.9867699999999999  7.9311199999999999
  1.3405400000000001  0.1263700000000000 10.5295400000000008
  0.0374300000000000  4.1369300000000004  0.7676800000000000
  0.0374300000000000  9.1020500000000002  3.6342900000000000
  2.8688600000000002  5.7933000000000003  0.7676800000000000
  2.8688600000000002  0.8281800000000000  3.6342900000000000
  2.8688600000000002  5.7933000000000003  3.6365799999999999
  2.8688600000000002  0.8281800000000000  0.7699700000000000
  2.8688600000000002  8.2738700000000005  5.0687400000000000
  2.8688600000000002  3.3087499999999999  2.2021299999999999
  5.5466600000000001  6.6201900000000000  5.0687400000000000
  5.5466600000000001  1.6550700000000000  2.2021299999999999
  0.0374300000000000  1.6563600000000001  5.0687400000000000
  0.0374300000000000  6.6214800000000000  2.2021299999999999
  0.0374300000000000  4.1369300000000004  3.6365799999999999
  0.0374300000000000  9.1020500000000002  0.7699700000000000
  2.7152300000000000  3.3100399999999999  5.0687400000000000
  2.7152300000000000  8.2751599999999996  2.2021299999999999
  0.0506400000000000  4.1496899999999997  6.4948699999999997
  0.0602800000000000  9.0652299999999997  9.3466500000000003
  2.8843800000000002  5.7852499999999996  6.5004000000000000
  2.8939100000000000  0.8844900000000000  9.3357799999999997
  2.8711400000000000  5.8371500000000003  9.3149400000000000
  2.8716300000000001  0.8228500000000000  6.4955299999999996
  2.7746200000000001  8.4125700000000005 10.7233000000000001
  2.8519700000000001  3.3124899999999999  7.9359200000000003
  5.6051299999999999  6.5016499999999997 10.7109600000000000
  5.5478100000000001  1.6588600000000000  7.9414699999999998
  5.6033999999999997  1.5559099999999999 10.7319399999999998
  0.0196000000000000  6.6268700000000003  7.9422199999999998
  0.0390700000000000  4.1047799999999999  9.3576700000000006
  0.0439000000000000  9.1140399999999993  6.4995799999999999
  2.7590300000000001  3.4000100000000000 10.6757100000000005
  2.7243700000000000  8.2755200000000002  7.9496099999999998
  2.8633700000000002  5.6413900000000003 11.7911900000000003
