Co  N  H 
 1.0000000000000000
     4.5257699999999996    0.0000000000000000    0.0000000000000000
     0.0000000000000000    8.6474799999999998    0.0000000000000000
     0.0000000000000000    0.0000000000000000   31.3553999999999995
 Co  N   H  
  24   8   1
Cartesian
  2.6573099999999998  0.0000000000000000  3.2361900000000001
  0.3425600000000000  0.0000000000000000  1.9597100000000001
  4.1313500000000003  2.1618700000000000  0.6832300000000000
  2.6573099999999998  0.0000000000000000  0.6832300000000000
  1.9203300000000001  2.1618700000000000  1.9597100000000001
  4.1313500000000003  2.1618700000000000  3.2361900000000001
  0.3857300000000000  0.0565900000000000  6.9626599999999996
  2.6217299999999999 -0.0381400000000000  5.9368100000000004
  1.8757699999999999  2.1637900000000001  4.5731599999999997
  0.3951100000000000 -0.0089200000000000  4.5712400000000004
  4.1770399999999999  2.1678999999999999  5.9228300000000003
  1.8932800000000001  2.0741999999999998  6.9602500000000003
  2.6573099999999998  4.3237399999999999  3.2361900000000001
  0.3425600000000000  4.3237399999999999  1.9597100000000001
  4.1313500000000003  6.4856100000000003  0.6832300000000000
  2.6573099999999998  4.3237399999999999  0.6832300000000000
  1.9203300000000001  6.4856100000000003  1.9597100000000001
  4.1313500000000003  6.4856100000000003  3.2361900000000001
  0.3353900000000000  4.3299000000000003  7.2173800000000004
  2.5853999999999999  4.2804300000000000  5.9096700000000002
  1.8778900000000001  6.4807100000000002  4.5883700000000003
  0.3984200000000000  4.3160400000000001  4.5838400000000004
  4.2344999999999997  6.5167500000000000  5.9007500000000004
  1.9849100000000000  6.4360999999999997  7.2083700000000004
  1.1314400000000000  1.0809299999999999  3.2662900000000001
  1.1314400000000000  3.2427999999999999  0.6531300000000000
  3.4045399999999999  1.0683199999999999  7.1614000000000004
  3.4016600000000001  3.2434900000000000  4.5908400000000000
  1.1314400000000000  5.4046799999999999  3.2662900000000001
  1.1314400000000000  7.5665399999999998  0.6531300000000000
  3.4322699999999999  5.3914200000000001  7.0846099999999996
  3.3945500000000002  7.5606200000000001  4.5890100000000000
  1.2193799999999999  5.3214899999999998  8.3035300000000003
