 V  N  H 
 1.0000000000000000
     5.2779199999999999    0.0000000000000000    0.0000000000000000
     0.0000000000000000    9.4531799999999997    0.0000000000000000
     0.0000000000000000    0.0000000000000000   27.2890000000000015
 V   N   H  
  24  24   1
Cartesian
  0.0000000000000000  2.3632900000000001  0.6822200000000000
  0.0000000000000000  0.0000000000000000  2.0466799999999998
  0.0000000000000000  2.3632900000000001  3.4111300000000000
  0.0000000000000000  0.0031100000000000  4.7699800000000003
  0.0000000000000000  2.3767100000000001  6.1449199999999999
  0.0000000000000000 -0.0929400000000000  7.4147600000000002
  0.0000000000000000  7.0898800000000000  0.6822200000000000
  0.0000000000000000  4.7265899999999998  2.0466799999999998
  0.0000000000000000  7.0898800000000000  3.4111300000000000
  0.0000000000000000  4.7289000000000003  4.7614299999999998
  0.0000000000000000  7.1105600000000004  6.1470500000000001
  0.0000000000000000  4.6274199999999999  7.3785699999999999
  2.6389600000000000  2.3632900000000001  0.6822200000000000
  2.6389600000000000  0.0000000000000000  2.0466799999999998
  2.6389600000000000  2.3632900000000001  3.4111300000000000
  2.6389600000000000  0.0030900000000000  4.7592200000000000
  2.6389600000000000  2.3639299999999999  6.1648899999999998
  2.6389600000000000 -0.1167600000000000  7.4129800000000001
  2.6389600000000000  7.0898800000000000  0.6822200000000000
  2.6389600000000000  4.7265899999999998  2.0466799999999998
  2.6389600000000000  7.0898800000000000  3.4111300000000000
  2.6389600000000000  4.7260999999999997  4.7611800000000004
  2.6389600000000000  7.0943600000000000  6.1401599999999998
  2.6389600000000000  4.6100300000000001  7.3792099999999996
  1.3194800000000000  3.1510799999999999  2.0466799999999998
  1.3194800000000000  0.7877800000000000  0.6822200000000000
  1.3210500000000001  3.1448000000000000  4.7636000000000003
  1.3194800000000000  0.7877800000000000  3.4111300000000000
  1.3112600000000001  3.2484799999999998  7.4015199999999997
  1.3216900000000000  0.8010500000000000  6.1519500000000003
  1.3194800000000000  7.8776700000000002  2.0466799999999998
  1.3194800000000000  5.5143700000000004  0.6822200000000000
  1.3215699999999999  7.8771399999999998  4.7614200000000002
  1.3194800000000000  5.5143700000000004  3.4111300000000000
  1.3184899999999999  7.9760700000000000  7.3966900000000004
  1.3196399999999999  5.5349800000000000  6.1352000000000002
  3.9584400000000000  3.1510799999999999  2.0466799999999998
  3.9584400000000000  0.7877800000000000  0.6822200000000000
  3.9568699999999999  3.1448000000000000  4.7636000000000003
  3.9584400000000000  0.7877800000000000  3.4111300000000000
  3.9666600000000001  3.2484799999999998  7.4015199999999997
  3.9562300000000001  0.8010500000000000  6.1519500000000003
  3.9584400000000000  7.8776700000000002  2.0466799999999998
  3.9584400000000000  5.5143700000000004  0.6822200000000000
  3.9563500000000000  7.8771399999999998  4.7614200000000002
  3.9584400000000000  5.5143700000000004  3.4111300000000000
  3.9594299999999998  7.9760700000000000  7.3966900000000004
  3.9582799999999998  5.5349800000000000  6.1352000000000002
  2.6389600000000000 10.3030899999999992  8.8139000000000003
