Re  N  H 
 1.0000000000000000
     3.6890100000000001    0.0000000000000000    0.0000000000000000
     0.5760683760000000    5.7184370319999998    0.0000000000000000
     0.0000000000000000    0.0000000000000000   31.1944000000000017
 Re  N   H  
   8  16   1
Cartesian
  1.0075499999999999  4.4702700000000002  1.7540600000000000
  2.1837800000000001  1.3563600000000000  0.8456800000000000
  3.6227800000000001  4.5784099999999999  4.3534899999999999
  1.1100000000000001  1.4645500000000000  3.4451100000000001
  2.5493000000000001  4.6681299999999997  6.9638799999999996
  3.7128999999999999  1.5582600000000000  6.0511600000000003
  1.5910200000000001  4.7272999999999996  9.4263300000000001
  2.6010000000000000  1.7296700000000000  8.8612300000000008
  2.8503400000000001  4.9863600000000003  0.9698300000000000
  0.3409500000000000  0.8402100000000000  1.6295999999999999
  2.2756400000000001  2.7929400000000002  2.3476900000000001
  0.9156600000000000  3.0336900000000000  0.2520500000000000
  1.7765599999999999  5.0945600000000004  3.5692599999999999
  2.9562200000000001  0.9484000000000000  4.2293399999999997
  1.2018899999999999  2.9010799999999999  4.9471200000000000
  3.5308899999999999  3.1418200000000001  2.8514800000000000
  0.6967300000000000  5.1924999999999999  6.1709100000000001
  1.8667600000000000  1.0434500000000000  6.8804499999999997
  3.7665600000000001  2.9800800000000001  7.5688199999999997
  2.4569200000000002  3.2434699999999999  5.4370000000000003
  3.3740399999999999  5.3403200000000002  8.7433499999999995
  0.7917100000000000  0.9901000000000000  9.4857999999999993
  2.6753499999999999  3.3675400000000000 10.1125299999999996
  1.3220300000000000  3.2967100000000000  8.0204599999999999
  2.6412800000000001  1.2735799999999999 10.4434400000000007
