Re  N  H 
 1.0000000000000000
     3.6890100000000001    0.0000000000000000    0.0000000000000000
     0.5760683760000000    5.7184370319999998    0.0000000000000000
     0.0000000000000000    0.0000000000000000   31.1944000000000017
 Re  N   H  
   8  16   1
Cartesian
  1.0075499999999999  4.4702700000000002  1.7540600000000000
  2.1837800000000001  1.3563600000000000  0.8456800000000000
  3.6227800000000001  4.5784099999999999  4.3534899999999999
  1.1100000000000001  1.4645500000000000  3.4451100000000001
  2.5626199999999999  4.6553399999999998  6.9416399999999996
  3.7299000000000002  1.5481600000000000  6.0244200000000001
  1.4726300000000001  4.6233700000000004  9.5874299999999995
  2.5709900000000001  1.6250300000000000  8.7304300000000001
  2.8503400000000001  4.9863600000000003  0.9698300000000000
  0.3409500000000000  0.8402100000000000  1.6295999999999999
  2.2756400000000001  2.7929400000000002  2.3476900000000001
  0.9156600000000000  3.0336900000000000  0.2520500000000000
  1.7765599999999999  5.0945600000000004  3.5692599999999999
  2.9562200000000001  0.9484000000000000  4.2293399999999997
  1.2018899999999999  2.9010799999999999  4.9471200000000000
  3.5308899999999999  3.1418200000000001  2.8514800000000000
  0.7270900000000000  5.1929400000000001  6.1826200000000000
  1.8892500000000001  1.0307299999999999  6.8494299999999999
  3.7596900000000000  2.9701599999999999  7.5434200000000002
  2.4537700000000000  3.2391700000000001  5.4377399999999998
  3.2582300000000002  5.2203900000000001  8.8471700000000002
  0.7407200000000000  0.9975900000000000  9.2952999999999992
  2.4587599999999998  3.1192199999999999 10.0544600000000006
  1.3133300000000001  3.2997899999999998  8.0144300000000008
  4.4976200000000004  4.9307299999999996 11.1097900000000003
