Mo  N Mo  N Mo  N Mo  N Mo  N Mo  N  H 
 1.0000000000000000
     2.8502200000000002    0.0000000000000000    0.0000000000000000
     0.0000000000000000    9.9178200000000007    0.0000000000000000
     0.0000000000000000    0.0000000000000000   25.7672999999999988
 Mo  N   Mo  N   Mo  N   Mo  N   Mo  N   Mo  N   H  
   2   2   2   2   2   2   2   2   2   2   2   2   1
Cartesian
  0.0000000000000000  2.4794550000000002  0.7158155939999999
  0.0000000000000000  0.0000000000000000  2.1471891090000002
  1.4251100000000001  3.3059565297000000  2.1471891090000002
  1.4251100000000001  0.8265015297000001  0.7158155939999999
  0.0000000000000000  2.4794550000000002  3.5788202970000000
  0.0000000000000000 -0.0051596676950052  4.9492288218778384
  1.4251100000000001  3.2908357223414826  4.9924128326468802
  1.4251100000000001  0.8265015297000001  3.5788202970000000
 -0.0000000000000000  2.4638072885339510  6.4810334655837041
  0.0000000000000000 -0.1002936957940355  7.8059144723950507
  1.4251100000000001  3.2719120397611272  7.7997475227945792
  1.4251100000000001  0.7940434765682781  6.4583224867450584
  0.0000000000000000  7.4383650000000010  0.7158155939999999
  0.0000000000000000  4.9589100000000004  2.1471891090000002
  1.4251100000000001  8.2648665297000008  2.1471891090000002
  1.4251100000000001  5.7854115297000002  0.7158155939999999
  0.0000000000000000  7.4383650000000010  3.5788202970000000
 -0.0000000000000000  4.9805234405996526  5.0209675643215235
  1.4251100000000001  8.2708292693370229  4.9796824634877153
  1.4251100000000001  5.7854115297000002  3.5788202970000000
 -0.0000000000000000  7.4894345600201548  6.4642993648991567
 -0.0000000000000000  4.7864024215490328  7.6658959941979870
  1.4251100000000001  8.3110329841609918  7.7772685229914496
  1.4251100000000001  5.8347564622775847  6.4697210792211708
 -0.0000000000000000  0.0069021151556660  9.5324667528905707
