Re  N  H 
 1.0000000000000000
     5.7473799999999997    0.0000000000000000    0.0000000000000000
     0.0000000000000000    5.6814650000000002    0.0000000000000000
     0.0000000000000000    0.0000000000000000   33.8990999999999971
 Re  N   H  
  16  32   1
Cartesian
  1.8266300000000000  1.4073300000000000  4.5726500000000003
  1.4569000000000001  0.0000000000000000  1.1827399999999999
  4.4372100000000003  1.4073300000000000  0.1620400000000000
  4.8069400000000000  0.0000000000000000  3.5519500000000002
  2.5326900000000001  1.2609500000000000 11.2582900000000006
  2.1870300000000000  5.6558000000000002  7.9418600000000001
  5.1740700000000004  1.4049100000000001  6.9407800000000002
  5.5164499999999999  5.6458300000000001 10.3486200000000004
  1.8266300000000000  4.2219699999999998  4.5726500000000003
  1.4569000000000001  2.8146499999999999  1.1827399999999999
  4.4372100000000003  4.2219699999999998  0.1620400000000000
  4.8069400000000000  2.8146499999999999  3.5519500000000002
  2.6422800000000000  4.1688499999999999 11.3016799999999993
  2.1872500000000001  2.8077800000000002  7.9565299999999999
  5.1701899999999998  4.2480200000000004  6.9362100000000000
  5.5338500000000002  2.8833600000000001 10.3069299999999995
  1.4981700000000000  1.4073300000000000  6.6177799999999998
  1.1283799999999999  0.0000000000000000  3.2278699999999998
  5.5051899999999998  1.4073300000000000  4.8970599999999997
  5.1354600000000001  0.0000000000000000  1.5071500000000000
  3.3684200000000000  1.4073300000000000  3.0244800000000001
  3.7381500000000001  0.0000000000000000  6.4143900000000000
  2.8954200000000001  1.4073300000000000  1.7102100000000000
  3.2652000000000001  0.0000000000000000  5.1001200000000004
  1.2197000000000000  1.6265300000000000 12.7347999999999999
  1.8213999999999999  5.5579999999999998  9.9650999999999996
  0.3775800000000000  1.4495700000000000 11.7909100000000002
  0.1097700000000000  5.6727600000000002  8.2866900000000001
  4.1357299999999997  1.4538700000000000  9.8054100000000002
  1.8079900000000000  0.1380000000000000 15.8475500000000000
  3.6372499999999999  1.4089799999999999  8.4864300000000004
  3.8866000000000001  0.0083300000000000 11.7546700000000008
  1.4981700000000000  4.2219699999999998  6.6177799999999998
  1.1283799999999999  2.8146499999999999  3.2278699999999998
  5.5051899999999998  4.2219699999999998  4.8970599999999997
  5.1354600000000001  2.8146499999999999  1.5071500000000000
  3.3684200000000000  4.2219699999999998  3.0244800000000001
  3.7381500000000001  2.8146499999999999  6.4143900000000000
  2.8954200000000001  4.2219699999999998  1.7102100000000000
  3.2652000000000001  2.8146499999999999  5.1001200000000004
  1.1437500000000000  5.3231000000000002 15.1044599999999996
  1.8671500000000001  2.7579799999999999 10.0014199999999995
  0.5558600000000000  4.2394499999999997 11.6966800000000006
  0.1210400000000000  2.8340800000000002  8.2841199999999997
  4.1218500000000002  4.2255399999999996  9.7771000000000008
  3.5670600000000001  3.2052299999999998 14.1628399999999992
  3.6246700000000001  4.2310999999999996  8.4668700000000001
  3.2192400000000001  3.4504800000000002 13.1122700000000005
  0.1708300000000000  4.2235300000000002 12.6461799999999993
