Nb Pd Nb Pd Nb Pd Nb  H 
 1.0000000000000000
     5.8425195865429966    0.0000000000000000    0.0000000000000000
     2.9212597932714983    5.0597696419357838    0.0000000000000000
     0.0000000000000000    0.0000000000000000   24.7703952470758963
 Nb  Pd  Nb  Pd  Nb  Pd  Nb  H  
   1   1   3   1   3   1   2   1
Cartesian
  0.0000000000000000  0.0000000000000000  9.9999991694359647
  1.4606298966357492  2.5298848209678919  9.9999991694359647
  2.9212597932714983  0.0000000000000000  9.9999991694359647
  4.3818896899072470  2.5298848209678919  9.9999991694359647
  5.8425195894642563  3.3731797629771125 12.3851976235379482
  4.3818896928285067  0.8432949420092205 12.3851976235379482
  2.9212597961927580  3.3731797629771125 12.3851976235379482
  1.4606298995570088  0.8432949420092205 12.3851976235379482
  2.9662008891988965  1.4336777690248577 14.7129639593983601
  4.3808170967914712  4.0132503627385496 14.7393174553760726
  5.7930184303696404  1.4401743867508621 14.7142324265685680
  7.3059903440599872  3.9903192134937360 14.6673575250924859
  1.4631960773011483  2.3034339300040596 15.8649112151340201
