Mo  N  H 
 1.0000000000000000
     5.7260600000000004    0.0000000000000000    0.0000000000000000
     0.0000000000000000    5.7004400000000004    0.0000000000000000
     0.0000000000000000    0.0000000000000000   29.7534999999999989
 Mo  N   H  
  16  16   1
Cartesian
  2.6244499999999999  0.0000000000000000  0.4132800000000000
  1.1929399999999999  0.0000000000000000  2.8926400000000001
  2.6168900000000002  0.0037200000000000  5.3704999999999998
  1.1929399999999999  5.6538199999999996  7.9069300000000000
  2.6244499999999999  2.8502200000000002  0.4132800000000000
  1.1929399999999999  2.8502200000000002  2.8926400000000001
  2.6168900000000002  2.8464999999999998  5.3704999999999998
  1.1929399999999999  2.8968400000000001  7.9069300000000000
  5.4874799999999997  0.0000000000000000  0.4132800000000000
  4.0559700000000003  0.0000000000000000  2.8926400000000001
  5.4950400000000004  0.0037200000000000  5.3704999999999998
  4.0559700000000003  0.0030200000000000  8.0207400000000000
  5.4874799999999997  2.8502200000000002  0.4132800000000000
  4.0559700000000003  2.8502200000000002  2.8926400000000001
  5.4950400000000004  2.8464999999999998  5.3704999999999998
  4.0559700000000003  2.8472000000000000  8.0207400000000000
  2.6244499999999999  1.4251100000000001  2.0660799999999999
  1.1929399999999999  1.4251100000000001  4.5457400000000003
  2.6219600000000001  1.4251100000000001  6.9607500000000000
  1.1929399999999999  1.4251100000000001  9.2422699999999995
  2.6244499999999999  4.2753300000000003  2.0660799999999999
  1.1929399999999999  4.2753300000000003  4.5457400000000003
  2.6247500000000001  4.2753300000000003  6.9306299999999998
  1.1929399999999999  4.2753300000000003  9.2401300000000006
  5.4874799999999997  1.4251100000000001  2.0660799999999999
  4.0559700000000003  1.4251100000000001  4.5457400000000003
  5.4899800000000001  1.4251100000000001  6.9607500000000000
  4.0559700000000003  1.4251100000000001  9.2665699999999998
  5.4874799999999997  4.2753300000000003  2.0660799999999999
  4.0559700000000003  4.2753300000000003  4.5457400000000003
  5.4871900000000000  4.2753300000000003  6.9306299999999998
  4.0559700000000003  4.2753300000000003  9.2566400000000009
  1.1929399999999999  1.4251100000000001 10.2633799999999997
