Ag Cr Ag Cr Ag Cr  H 
 1.0000000000000000
     5.7885555903618604    0.0000000000000000    0.0000000000000000
    -2.8942777951809302    5.0130366452429325    0.0000000000000000
     0.0000000000000000    0.0000000000000000   24.7263342501939576
 Ag  Cr  Ag  Cr  Ag  Cr  H  
   3   1   3   1   3   1   1
Cartesian
  0.0000000000000000  0.0000000000000000  9.9999992923310419
 -1.4471389975904581  2.5065182226214735  9.9999992923310419
  1.4471389975904581  2.5065182226214735  9.9999992923310419
  2.8942778951809234  0.0000000000000000  9.9999992923310419
  2.8942778951809234  1.6710120817476539 12.3631673250969651
  1.4471389975904581  4.1775303043691272 12.3631673250969651
 -1.4471389975904581  4.1775303043691272 12.3631673250969651
  0.0000000000000000  1.6710120817476539 12.3631673250969651
 -0.0000188999986625  3.3244185647412015 14.7858404536518950
  1.4319149986678135  0.8442926402520264 14.7858108536539898
  4.3566304916947614  0.8442843402526139 14.7859000536476781
  2.8943057951789486  3.3420282634950174 14.6023157666393697
  2.8942930951798478  3.3420383634943027 16.2124938526920559
