Mo  N  H 
 1.0000000000000000
     5.7260600000000004    0.0000000000000000    0.0000000000000000
     0.0000000000000000    5.7004400000000004    0.0000000000000000
     0.0000000000000000    0.0000000000000000   29.7534999999999989
 Mo  N   H  
  16  16   1
Cartesian
  1.9087000000000001  0.0000000000000000  1.6531000000000000
  0.4771800000000000  0.0000000000000000  4.1324600000000000
  1.9218599999999999  0.0000000000000000  6.6285200000000000
  0.4771800000000000  0.0000000000000000  9.0101600000000008
  1.9087000000000001  2.8502200000000002  1.6531000000000000
  0.4771800000000000  2.8502200000000002  4.1324600000000000
  1.8999200000000001  2.8502200000000002  6.6433799999999996
  0.4771800000000000  2.8502200000000002  8.9629700000000003
  4.7717299999999998  0.0000000000000000  1.6531000000000000
  3.3402099999999999  0.0000000000000000  4.1324600000000000
  4.7585699999999997  0.0000000000000000  6.6285200000000000
  3.3402099999999999  0.0000000000000000  8.9651300000000003
  4.7717299999999998  2.8502200000000002  1.6531000000000000
  3.3402099999999999  2.8502200000000002  4.1324600000000000
  4.7805099999999996  2.8502200000000002  6.6433799999999996
  3.3402099999999999  2.8502200000000002  8.9220600000000001
  0.4771800000000000  1.4251100000000001  0.8265500000000000
  1.9087000000000001  1.4251100000000001  3.3059099999999999
  0.4771800000000000  1.4213800000000001  5.7814899999999998
  1.8949900000000000  1.4123300000000001  8.3297000000000008
  0.4771800000000000  4.2753300000000003  0.8265500000000000
  1.9087000000000001  4.2753300000000003  3.3059099999999999
  0.4771800000000000  4.2790600000000003  5.7814899999999998
  1.8949900000000000  4.2881099999999996  8.3297000000000008
  3.3402099999999999  1.4251100000000001  0.8265500000000000
  4.7717299999999998  1.4251100000000001  3.3059099999999999
  3.3402099999999999  1.4293300000000000  5.7828200000000001
  4.7854400000000004  1.4123300000000001  8.3297000000000008
  3.3402099999999999  4.2753300000000003  0.8265500000000000
  4.7717299999999998  4.2753300000000003  3.3059099999999999
  3.3402099999999999  4.2711100000000002  5.7828200000000001
  4.7854400000000004  4.2881099999999996  8.3297000000000008
  0.4771800000000000  0.0000000000000000 10.7662300000000002
