Mo  N Mo  N Mo  N Mo  N Mo  N Mo  N  H 
 1.0000000000000000
     2.8502200000000002    0.0000000000000000    0.0000000000000000
     0.0000000000000000    9.9178200000000007    0.0000000000000000
     0.0000000000000000    0.0000000000000000   25.7672999999999988
 Mo  N   Mo  N   Mo  N   Mo  N   Mo  N   Mo  N   H  
   2   2   2   2   2   2   2   2   2   2   2   2   1
Cartesian
  0.0000000000000000  2.4794550000000002  0.7158155939999999
  0.0000000000000000  0.0000000000000000  2.1471891090000002
  1.4251100000000001  3.3059565297000000  2.1471891090000002
  1.4251100000000001  0.8265015297000001  0.7158155939999999
  0.0000000000000000  2.4794550000000002  3.5788202970000000
  0.0000000000000000  0.0038121474928079  5.0044269963702996
  1.4251100000000001  3.2916243319459313  4.9938371011339378
  1.4251100000000001  0.8265015297000001  3.5788202970000000
 -0.0000000000000000  2.4766082712134683  6.4886323651518110
 -0.0000000000000000 -0.1201941592088942  7.7483094567573332
  1.4251100000000001  3.2818247957431073  7.8079450534960149
  1.4251100000000001  0.8248163240408691  6.4301637268323191
  0.0000000000000000  7.4383650000000010  0.7158155939999999
  0.0000000000000000  4.9589100000000004  2.1471891090000002
  1.4251100000000001  8.2648665297000008  2.1471891090000002
  1.4251100000000001  5.7854115297000002  0.7158155939999999
  0.0000000000000000  7.4383650000000010  3.5788202970000000
  0.0000000000000000  4.9727457379178261  5.0141170235227168
  1.4251100000000001  8.2582784188987031  4.9818704428819052
  1.4251100000000001  5.7854115297000002  3.5788202970000000
 -0.0000000000000000  7.4704368675183526  6.4715924461368273
  0.0000000000000000  4.7985063742748322  7.6700981528352630
  1.4251100000000001  8.2459465081141747  7.8072701216440148
  1.4251100000000001  5.8207174696069020  6.4516805161298558
  1.4251100000000001  0.5223706321316350  8.8586035935940401
