Mo  N  H 
 1.0000000000000000
     2.8502200000000002    0.0000000000000000    0.0000000000000000
     0.0000000000000000    9.9178200000000007    0.0000000000000000
     0.0000000000000000    0.0000000000000000   25.7672999999999988
 Mo  N   H  
  12  12   1
Cartesian
  0.0000000000000000  2.4794600000000000  0.7158200000000000
  0.0000000000000000  0.0000000000000000  2.1471900000000002
  0.0000000000000000  2.4794600000000000  3.5788199999999999
  0.0000000000000000  9.9058200000000003  4.9497700000000000
  0.0000000000000000  2.4543100000000000  6.4860100000000003
  0.0000000000000000  9.8041699999999992  7.8048400000000004
  0.0000000000000000  7.4383699999999999  0.7158200000000000
  0.0000000000000000  4.9589100000000004  2.1471900000000002
  0.0000000000000000  7.4383699999999999  3.5788199999999999
  0.0000000000000000  4.9771299999999998  5.0235000000000003
  0.0000000000000000  7.4818400000000000  6.4636600000000000
  0.0000000000000000  4.7713599999999996  7.6715099999999996
  1.4251100000000001  3.3059599999999998  2.1471900000000002
  1.4251100000000001  0.8265000000000000  0.7158200000000000
  1.4251100000000001  3.2879299999999998  4.9977900000000002
  1.4251100000000001  0.8265000000000000  3.5788199999999999
  1.4251100000000001  3.2552900000000000  7.8090999999999999
  1.4251100000000001  0.7804500000000000  6.4581400000000002
  1.4251100000000001  8.2648700000000002  2.1471900000000002
  1.4251100000000001  5.7854099999999997  0.7158200000000000
  1.4251100000000001  8.2634399999999992  4.9770700000000003
  1.4251100000000001  5.7854099999999997  3.5788199999999999
  1.4251100000000001  8.2981800000000003  7.7757399999999999
  1.4251100000000001  5.8238700000000003  6.4734100000000003
  0.0000000000000000  9.8774400000000000  9.5299300000000002
