Mo  N Mo  N Mo  N Mo  N Mo  N Mo  N Mo  N Mo  N Mo  N Mo  N Mo  N Mo  N Mo  N Mo  N Mo  N Mo  N  H 
 1.0000000000000000
     5.7260600000000004    0.0000000000000000    0.0000000000000000
     0.0000000000000000    5.7004400000000004    0.0000000000000000
     0.0000000000000000    0.0000000000000000   29.7534999999999989
 Mo  N   Mo  N   Mo  N   Mo  N   Mo  N   Mo  N   Mo  N   Mo  N   Mo  N   Mo  N   Mo  N   Mo  N   Mo  N   Mo  N   Mo  N   Mo  N   H  
   1   1   1   1   1   1   1   1   1   1   1   1   1   1   1   1   1   1   1   1   1   1   1   1   1   1   1   1   1   1   1   1   1
Cartesian
  1.9086962101000000  0.0000000000000000  1.6531044600000000
  0.4771812101000001  1.4251100000000001  0.8265522300000000
  0.4771812101000001  0.0000000000000000  4.1324636149999998
  1.9086962101000000  1.4251100000000001  3.3059113849999999
  1.9086962101000000  0.0000000000000000  6.6518842085761367
  0.4759931233820746  1.4311401183011403  5.7842075655776455
  0.4959470941483086  0.0000000000000000  8.9376962445771877
  1.9086962101000000  1.4783929628065007  8.3423216394156938
  1.9086962101000000  2.8502200000000002  1.6531044600000000
  0.4771812101000001  4.2753300000000003  0.8265522300000000
  0.4771812101000001  2.8502200000000002  4.1324636149999998
  1.9086962101000000  4.2753300000000003  3.3059113849999999
  1.9086962101000000  2.8502200000000002  6.6088855004222511
  0.4759931233820749  4.2692998816988599  5.7842075655776455
  0.4422168711675400  2.8502200000000002  9.0219194786259287
  1.9086962101000000  4.2220470371934908  8.3423216394156938
  4.7717262101000006  0.0000000000000000  1.6531044600000000
  3.3402112101000001  1.4251100000000001  0.8265522300000000
  3.3402112101000001  0.0000000000000000  4.1324636149999998
  4.7717262101000006  1.4251100000000001  3.3059113849999999
  4.7717262101000006  0.0000000000000000  6.6345323143526080
  3.3413992968179262  1.4311401183011419  5.7842075655776455
  3.3214453260516930 -0.0000000000000000  8.9376962445771877
  4.7717262101000006  1.4062967277722358  8.3159396671051553
  4.7717262101000006  2.8502200000000002  1.6531044600000000
  3.3402112101000001  4.2753300000000003  0.8265522300000000
  3.3402112101000001  2.8502200000000002  4.1324636149999998
  4.7717262101000006  4.2753300000000003  3.3059113849999999
  4.7717262101000006  2.8502200000000002  6.6447149477628580
  3.3413992968179262  4.2692998816988599  5.7842075655776455
  3.3751755490324604  2.8502200000000002  9.0219194786259287
  4.7717262101000006  4.2941432722277630  8.3159396671051553
  4.7717262101000015  2.8502199999999975 10.3160497305691514
