Mo  N Mo  N Mo  N Mo  N Mo  N Mo  N  H 
 1.0000000000000000
     2.8502200000000002    0.0000000000000000    0.0000000000000000
     0.0000000000000000    9.9178200000000007    0.0000000000000000
     0.0000000000000000    0.0000000000000000   25.7672999999999988
 Mo  N   Mo  N   Mo  N   Mo  N   Mo  N   Mo  N   H  
   2   2   2   2   2   2   2   2   2   2   2   2   1
Cartesian
  0.0000000000000000  2.4794550000000002  0.7158155939999999
  0.0000000000000000  0.0000000000000000  2.1471891090000002
  1.4251100000000001  3.3059565297000000  2.1471891090000002
  1.4251100000000001  0.8265015297000001  0.7158155939999999
  0.0000000000000000  2.4794550000000002  3.5788202970000000
 -0.0047019031516446  0.0126934796930085  5.0148035201153940
  1.4251938212931636  3.3052303498551048  4.9763926010245214
  1.4251100000000001  0.8265015297000001  3.5788202970000000
 -0.0059552744760949  2.5165187793931665  6.4671741009797312
 -0.0115464265714281 -0.1509236346748631  7.6650410193726950
  1.4189476459973127  3.2935891534650428  7.8010097419908417
  1.4143489975343702  0.8704840321781935  6.4470955590283445
  0.0000000000000000  7.4383650000000010  0.7158155939999999
  0.0000000000000000  4.9589100000000004  2.1471891090000002
  1.4251100000000001  8.2648665297000008  2.1471891090000002
  1.4251100000000001  5.7854115297000002  0.7158155939999999
  0.0000000000000000  7.4383650000000010  3.5788202970000000
 -0.0022422513418068  4.9661808861649579  5.0040025734591316
  1.4193778613590109  8.2510594189703337  4.9947712941102935
  1.4251100000000001  5.7854115297000002  3.5788202970000000
 -0.0115876103900709  7.4395629411835378  6.4922604067909466
 -0.0075319143853308  4.8409638336678578  7.7481375412771278
  1.4121592996165768  8.2524325290918483  7.8075096822080337
  1.4165431001651039  5.7880532910633429  6.4346653436046068
  1.4157143109429640  5.4816705463843860  8.8597874149112243
