Mo  N  H 
 1.0000000000000000
     2.8508800000000001    0.0000000000000000    0.0000000000000000
     0.0000000000000000   11.4154999999999998    0.0000000000000000
     0.0000000000000000    0.0000000000000000   29.6271999999999984
 Mo  N   H  
  16  16   1
Cartesian
  1.6630000000000000  2.8538700000000001  2.0573100000000002
  1.6630000000000000  8.5616199999999996  2.0573100000000002
  1.6630000000000000  5.7077499999999999  2.0573100000000002
  1.6630000000000000  0.0000000000000000  2.0573100000000002
  0.2375600000000000  2.8538700000000001  4.5264400000000000
  0.2375600000000000  8.5616199999999996  4.5264400000000000
  0.2375600000000000  5.7077499999999999  4.5264400000000000
  0.2375600000000000  0.0000000000000000  4.5264400000000000
  1.6630000000000000  2.8538700000000001  7.0052899999999996
  1.6630000000000000  8.5616199999999996  7.0290299999999997
  1.6630000000000000  5.7141599999999997  7.0216900000000004
  1.6630000000000000 11.4090900000000008  7.0216900000000004
  0.2375600000000000  2.8538700000000001  9.5377700000000001
  0.2375600000000000  8.5616199999999996  9.3270400000000002
  0.2375600000000000  5.6576399999999998  9.2661700000000007
  0.2375600000000000  0.0501100000000000  9.2661700000000007
  1.6630000000000000  4.2328700000000001  0.4115200000000000
  0.2375600000000000  7.1826299999999996  1.2345699999999999
  0.2375600000000000  9.9406199999999991  1.2345699999999999
  1.6630000000000000  1.4748800000000000  0.4115200000000000
  0.2375600000000000  4.2328700000000001  2.8803600000000000
  1.6630000000000000  7.1826299999999996  3.7033999999999998
  1.6630000000000000  9.9406199999999991  3.7033999999999998
  0.2375600000000000  1.4748800000000000  2.8803600000000000
  1.6630000000000000  4.2496799999999997  5.3658200000000003
  0.2375600000000000  7.1531599999999997  6.2097899999999999
  0.2375600000000000  9.9700900000000008  6.2097899999999999
  1.6630000000000000  1.4580700000000000  5.3658200000000003
  0.2375600000000000  4.1698599999999999  7.8767199999999997
  1.6630000000000000  7.1050599999999999  8.8527100000000001
  1.6630000000000000 10.0181900000000006  8.8527100000000001
  0.2375600000000000  1.5378900000000000  7.8767199999999997
  1.6630000000000000  2.8538700000000001 10.7991399999999995
