Mo  N Mo  N Mo  N Mo  N  H 
 1.0000000000000000
     2.8508800000000001    0.0000000000000000    0.0000000000000000
     0.0000000000000000   11.4154999999999998    0.0000000000000000
     0.0000000000000000    0.0000000000000000   29.6271999999999984
 Mo  N   Mo  N   Mo  N   Mo  N   H  
   4   4   4   4   4   4   4   4   1
Cartesian
  1.6630038304000001  2.8538749999999999  2.0573127680000001
  1.6630038304000001  8.5616249999999994  2.0573127680000001
  1.6630038304000001  5.7077499999999999  2.0573127680000001
  1.6630038304000001  0.0000000000000000  2.0573127680000001
  1.6630038304000001  4.2328673999999999  0.4115218080000000
  0.2375638304000000  7.1826325999999998  1.2345654239999999
  0.2375638304000000  9.9406174000000007  1.2345654239999999
  1.6630038304000001  1.4748826000000002  0.4115218080000000
  0.2375638304000000  2.8538749999999999  4.5264436159999999
  0.2375638304000000  8.5616249999999994  4.5264436159999999
  0.2375638304000000  5.7077499999999999  4.5264436159999999
  0.2375638304000000  0.0000000000000000  4.5264436159999999
  0.2375638304000000  4.2328673999999999  2.8803563839999997
  1.6630038304000001  7.1826325999999998  3.7033999999999998
  1.6630038304000001  9.9406174000000007  3.7033999999999998
  0.2375638304000000  1.4748826000000002  2.8803563839999997
  1.6630038304000001  2.8457828129175877  7.0051226146030432
  1.6630038304000001  8.5528908685680722  6.9994848225181352
  1.6630038304000001  5.7093996583747026  7.0240760097954702
  1.6630038304000001 -0.0179177845673197  7.0251252874701970
  1.6630038304000001  4.2471893527566449  5.3689387659358330
  0.2375638304000000  7.1637726015273522  6.1935990126106084
  0.2375638304000000  9.9471815195635500  6.1967438008229374
  1.6630038304000001  1.4538423527763731  5.3680472377707611
  0.2375638304000000  2.8462884780802473  9.4425515754025628
  0.2375638304000000  8.5528298774983398  9.4614048617535609
  0.2375638304000000  5.6419390634266762  9.2768123127534654
  0.2375638304000000  0.0451974439253606  9.2785771850161147
  0.2375638304000000  4.1938100353342689  7.8486425307461003
  1.6630038304000001  7.1444026945906680  8.7277388443961286
  1.6630038304000001  9.9578656927653348  8.7288899957026498
  0.2375638304000000  1.4970858078055740  7.8509641331923508
  1.6630038304000001  8.5531545351170966 10.7566503682778354
