Ag  H 
 1.0000000000000000
    11.9327630062339534    0.0000000000000000    0.0000000000000000
     0.0000000000000000   10.3340759007377692    0.0000000000000000
     0.0000000000000000    0.0000000000000000   27.3072951467081566
 Ag  H  
  64   1
Cartesian
  0.0000000000000000  0.0000000000000000 10.0000000000000000
  2.9831907515584883  0.0000000000000000 10.0000000000000000
  5.9663815031169767  0.0000000000000000 10.0000000000000000
  8.9495722546754646  0.0000000000000000 10.0000000000000000
  1.4915953757792442  2.5835189751844423 10.0000000000000000
  4.4747861273377323  2.5835189751844423 10.0000000000000000
  7.4579768788962211  2.5835189751844423 10.0000000000000000
 10.4411676304547090  2.5835189751844423 10.0000000000000000
  0.0000000000000000  5.1670379503688846 10.0000000000000000
  2.9831907515584883  5.1670379503688846 10.0000000000000000
  5.9663815031169767  5.1670379503688846 10.0000000000000000
  8.9495722546754646  5.1670379503688846 10.0000000000000000
  1.4915953757792442  7.7505569255533269 10.0000000000000000
  4.4747861273377323  7.7505569255533269 10.0000000000000000
  7.4579768788962211  7.7505569255533269 10.0000000000000000
 10.4411676304547090  7.7505569255533269 10.0000000000000000
  1.4915953757792442  0.8611729917281474 12.4357650489027201
  4.4747861273377323  0.8611729917281474 12.4357650489027201
  7.4579768788962211  0.8611729917281474 12.4357650489027201
 10.4411676304547090  0.8611729917281474 12.4357650489027201
  0.0000000000000000  3.4446919669125897 12.4357650489027201
  2.9831907515584883  3.4446919669125897 12.4357650489027201
  5.9663815031169767  3.4446919669125897 12.4357650489027201
  8.9495722546754646  3.4446919669125897 12.4357650489027201
  1.4915953757792442  6.0282109420970320 12.4357650489027201
  4.4747861273377323  6.0282109420970320 12.4357650489027201
  7.4579768788962211  6.0282109420970320 12.4357650489027201
 10.4411676304547090  6.0282109420970320 12.4357650489027201
  0.0000000000000000  8.6117299172814743 12.4357650489027201
  2.9831907515584883  8.6117299172814743 12.4357650489027201
  5.9663815031169767  8.6117299172814743 12.4357650489027201
  8.9495722546754646  8.6117299172814743 12.4357650489027201
 -0.0006040586448381  1.7228494065387274 14.8503226793671619
  2.9839277008627998  1.7199502580175983 14.8478673400462409
  5.9724029715013209  1.7175968913770976 14.8501744073143929
  8.9467771589273291  1.7195018185459119 14.8516429664143779
  1.4914425365746815  4.2760173944981066 14.8818407179179140
  4.4742344998199437  4.3087030694207336 14.8535042142532969
  7.4585922036913628  4.3031143087167987 14.8516080778524273
 10.4413889816068917  4.3110695873778884 14.8549671997031041
 -0.0031493222627405  6.8857956119799137 14.8510525784822516
  2.9848623745757150  6.8877023846835588 14.8484511872765452
  5.9665487947313531  6.8901017289322803 14.8482548940773036
  8.9501224947296265  6.8891134765897721 14.8494701153810009
  1.4914976996464366  9.4725408720666717 14.8472858694948311
  4.4528648411526888  9.4869417436261987 14.8795363979698116
  7.4613557003196220  9.4703042164673121 14.8446282838196915
 10.4654622395603454  9.4862746879464996 14.8807475904351634
 -0.0141453458497085 -0.0081029064661828 17.3510921578179484
  2.9995474760295404 -0.0093335180483795 17.3524136742265327
  5.9665395482054304 -0.0021693106830640 17.2906427215427563
  8.9536400801616569 -0.0003743866321660 17.2898405507571979
  1.4939801620640929  2.5926440707663749 17.3501845753745521
  4.5030787852085741  2.5920918971034670 17.2777035590770325
  7.4618290320345455  2.5798702187589702 17.3015265744968723
 10.4183991907896818  2.5951069283113926 17.2792048242852445
 -0.0013367086356063  5.1500106935754211 17.2915781177200181
  2.9838385507820311  5.1498709196737398 17.2945509333063576
  5.9686613630601704  5.1759684216960151 17.2950586740957739
  8.9542451606503981  5.1749062196063029 17.2979590470670530
  1.4904445604439394  7.7158537464514154 17.2696774794998049
  4.4700009798654730  7.7529283786995116 17.2909216058683057
  7.4598608143589997  7.7562138432870036 17.2895864562119961
 10.4484526670098017  7.7509815039211611 17.2892920481275176
  1.4937052058103446  0.8536350651367256 18.2529315848193292
