Mo  N  H 
 1.0000000000000000
    11.4154999999999998    0.0000000000000000    0.0000000000000000
     0.0000000000000000    4.9378700000000002    0.0000000000000000
     0.0000000000000000    0.0000000000000000   25.6579000000000015
 Mo  N   H  
  24  24   1
Cartesian
  8.5616199999999996  2.4689399999999999  0.7127800000000000
  8.5616199999999996  0.0000000000000000  2.1380699999999999
  2.8538700000000001  2.4689399999999999  0.7127800000000000
  2.8538700000000001  0.0000000000000000  2.1380699999999999
  5.7077499999999999  2.4689399999999999  0.7127800000000000
  5.7077499999999999  0.0000000000000000  2.1380699999999999
  0.0000000000000000  2.4689399999999999  0.7127800000000000
  0.0000000000000000  0.0000000000000000  2.1380699999999999
  8.5616199999999996  2.4689399999999999  3.5636299999999999
  8.5595300000000005  4.9238600000000003  4.9875299999999996
  2.8538700000000001  2.4689399999999999  3.5636299999999999
  2.8538800000000002  0.0078100000000000  4.9798200000000001
  5.7077499999999999  2.4689399999999999  3.5636299999999999
  5.7110500000000002  4.9350899999999998  4.9716800000000001
  0.0000000000000000  2.4689399999999999  3.5636299999999999
 11.4133999999999993  4.9094100000000003  4.9790299999999998
  8.5644200000000001  2.4546800000000002  6.4516799999999996
  8.5728299999999997  0.1410200000000000  7.6991699999999996
  2.8482500000000002  2.4849299999999999  6.4547299999999996
  2.8395000000000001  4.8164600000000002  7.7218700000000000
  5.7116199999999999  2.4621000000000000  6.4928400000000002
  5.6928999999999998  0.0066100000000000  7.5858699999999999
 11.3998299999999997  2.4655999999999998  6.5038499999999999
  0.0432800000000000  4.8842699999999999  7.6307099999999997
  7.1826299999999996  1.6459400000000000  2.1380699999999999
  7.1826299999999996  4.1148800000000003  0.7127800000000000
  4.2328700000000001  3.2919299999999998  2.1380699999999999
  4.2328700000000001  0.8229900000000000  0.7127800000000000
  1.4748800000000000  3.2919299999999998  2.1380699999999999
  1.4748800000000000  0.8229900000000000  0.7127800000000000
  9.9406199999999991  1.6459400000000000  2.1380699999999999
  9.9406199999999991  4.1148800000000003  0.7127800000000000
  7.1859799999999998  1.6447300000000000  4.9871800000000004
  7.1826299999999996  4.1148800000000003  3.5636299999999999
  4.2266800000000000  3.2882600000000002  4.9869300000000001
  4.2328700000000001  0.8229900000000000  3.5636299999999999
  1.4850399999999999  3.2841200000000002  4.9793799999999999
  1.4748800000000000  0.8229900000000000  3.5636299999999999
  9.9370399999999997  1.6444300000000001  4.9781700000000004
  9.9406199999999991  4.1148800000000003  3.5636299999999999
  7.1037600000000003  1.5681300000000000  7.7958699999999999
  7.1958299999999999  4.0759600000000002  6.4327500000000004
  4.2726800000000003  3.3690899999999999  7.7931299999999997
  4.1868999999999996  0.8422900000000000  6.4345499999999998
  1.4101900000000001  3.3031899999999998  7.7695800000000004
  1.4732799999999999  0.8360100000000000  6.3893599999999999
 10.0270399999999995  1.5733200000000001  7.7778999999999998
  9.9058399999999995  4.0881600000000002  6.4129899999999997
  1.4527099999999999  0.5943800000000000  8.8182100000000005
