In  H 
 1.0000000000000000
     6.6176055316925657    0.0000000000000000    0.0000000000000000
     3.3088027658462829    5.7310145944338586    0.0000000000000000
     0.0000000000000000    0.0000000000000000   25.4032512022906403
 In  H  
  12   1
Cartesian
  1.6544014829231344  0.9551691324056408  9.9999992923310419
  4.9632043487694109  0.9551691324056408  9.9999992923310419
  3.3088028658462760  3.8206765296225633  9.9999992923310419
  6.6176058316925452  3.8206765296225633  9.9999992923310419
  6.6176058316925452  1.9103382648112817 12.7016256011453201
  3.3088028658462760  1.9103382648112817 12.7016256011453201
  8.2720072146156873  4.7758456620282033 12.7016256011453201
  4.9632043487694109  4.7758456620282033 12.7016256011453201
  9.8627892020409735  5.6942563970351223 15.5665063984065863
  6.6813400271822729  5.6942717970340331 15.5668389983830497
  8.2721031146088997  2.9390842920101132 15.5667939983862329
  4.9631879487705701  2.8655290972153864 15.4786775046219649
  1.6543568829262907  0.9550938324109696 16.3226019449000468
