Co  N  H 
 1.0000000000000000
     4.3237399999999999    0.0000000000000000    0.0000000000000000
     0.0000000000000000    7.8388600000000004    0.0000000000000000
     0.0000000000000000    0.0000000000000000   27.1545999999999985
 Co  N   H  
  24   8   1
Cartesian
  0.0000000000000000  5.1959900000000001  0.3945600000000000
  0.0000000000000000  1.2765599999999999  2.6573500000000001
  0.0000000000000000  2.6428699999999998  0.3945600000000000
  0.0000000000000000  6.5622999999999996  2.6573500000000001
  2.1618700000000000  6.5622999999999996  4.1313000000000004
  2.1618700000000000  2.6428699999999998  1.8685099999999999
  0.0000000000000000  3.9194300000000002  2.6054800000000000
  0.0000000000000000  0.0000000000000000  0.3426900000000000
  2.1618700000000000  1.2765599999999999  4.1313000000000004
  2.1618700000000000  5.1959900000000001  1.8685099999999999
  2.1618700000000000  3.9194300000000002  4.1831699999999996
  2.1618700000000000  0.0000000000000000  1.9203699999999999
  0.0049500000000000  5.1752200000000004  4.9278700000000004
  0.0284100000000000  1.2673500000000000  7.2053500000000001
 -0.0164700000000000  2.6642100000000002  4.9255800000000001
 -0.0551000000000000  6.5209599999999996  7.2342300000000002
  2.1776399999999998  6.7387300000000003  8.4327000000000005
  2.1818700000000000  2.6554600000000002  6.3565800000000001
 -0.0319900000000000  3.9491000000000001  7.2137000000000002
 -0.0062000000000000 -0.0120200000000000  4.8625200000000000
  2.0735000000000001  1.2967700000000000  8.4874700000000001
  2.1232400000000000  5.1901999999999999  6.4311400000000001
  2.0396100000000001  3.7877000000000001  8.5058900000000008
  2.1640100000000002  0.0168800000000000  6.3573300000000001
  3.2427999999999999  2.6129300000000000  3.3943200000000000
  3.2427999999999999  6.5323599999999997  1.1315299999999999
  1.0809299999999999  5.2259300000000000  3.3943200000000000
  1.0809299999999999  1.3065000000000000  1.1315299999999999
  3.2743600000000002  2.5606100000000001  7.9201300000000003
  3.2495500000000002  6.5002800000000001  5.6461600000000001
  1.0692500000000000  5.2863899999999999  8.0476500000000009
  1.0521600000000000  1.3230000000000000  5.6277100000000004
  1.4432199999999999  2.5575800000000002  9.4446800000000000
