Mo  N Mo  N  H 
 1.0000000000000000
     5.6628600000000002    0.0000000000000000    0.0000000000000000
     0.0000000000000000    9.9302299999999999    0.0000000000000000
     0.0000000000000000    0.0000000000000000   28.6661000000000001
 Mo  N   Mo  N   H  
  16  16  16  16   1
Cartesian
  1.4265310626000003  5.0858665967999999  5.0687398020000005
  1.4265310626000003  0.1207515968000000  2.2021298020000000
  4.2579610625999997  2.5429332983999999  0.6644801980000000
  4.2579610625999997  7.5080482983999994  3.5310901979999998
  4.2579610625999997  2.5429332983999999  3.7400660669999999
  4.2579610625999997  7.5080482983999994  0.8734560670000000
  1.4265310626000003  7.3872967016000004  0.6644801980000000
  1.4265310626000003  2.4221817016000000  3.5310901979999998
  4.2579610625999997  4.8443634032000000  5.0687398020000005
  4.2579610625999997  9.8094784032000000  2.2021298020000000
  1.4265310626000003  7.3872967016000004  3.7400660669999999
  1.4265310626000003  2.4221817016000000  0.8734560670000000
  4.2186041856000003  4.9651149999999999  2.2021298020000000
  4.2186041856000003  0.0000000000000000  5.0687398020000005
  1.3871741856000002  4.9651149999999999  2.2021298020000000
  1.3871741856000002  0.0000000000000000  5.0687398020000005
  0.0374315046000000  4.1369338180000002  0.7676781580000001
  0.0374315046000000  9.1020488180000001  3.6342881579999999
  2.8688615046000003  5.7932961820000006  0.7676781580000001
  2.8688615046000003  0.8281811820000000  3.6342881579999999
  2.8688615046000003  5.7932961820000006  3.6365814460000001
  2.8688615046000003  0.8281811820000000  0.7699714460000000
  2.8688615046000003  8.2738676360000003  5.0687398020000005
  2.8688615046000003  3.3087526359999999  2.2021298020000000
  5.5466581128000003  6.6201864340999999  5.0687398020000005
  5.5466581128000003  1.6550714341000001  2.2021298020000000
  0.0374315046000000  1.6563623640000000  5.0687398020000005
  0.0374315046000000  6.6214773639999995  2.2021298020000000
  0.0374315046000000  4.1369338180000002  3.6365814460000001
  0.0374315046000000  9.1020488180000001  0.7699714460000000
  2.7152281128000002  3.3100435659000000  5.0687398020000005
  2.7152281128000002  8.2751585659000000  2.2021298020000000
  1.4317646290145221  5.0609969839964526 10.6094298463445877
  1.3969811820226836  0.0961302080092881  7.9169106751512599
  4.2529446771744857  2.5341148858416895  6.4229677382919599
  4.2390122871932521  7.4567464087099840  9.3453252105861040
  4.2433925900231069  2.5321636845595172  9.5378772038074686
  4.2532196188035334  7.4964774636690166  6.6029760399061788
  1.4215598552725812  7.3800761399903294  6.4263091980959386
  1.3934706733911719  2.4382782123199025  9.3226207036138984
  4.1844603626336880  4.8818817655826301 10.6084813314394371
  4.2282154444164215  9.8087494535485895  7.9137327508158180
  1.4148449902538873  7.3861646451508154  9.5431698032393459
  1.4219820297940466  2.4134081764684203  6.6004762447946606
  4.2168962464853941  4.9220575071773203  7.9280679226331419
  4.1675080121054222 -0.1219068075305508 10.5338724150047813
  1.3800740380363741  4.9692936028629786  7.9329183987132872
  1.3380943494568724  0.1041013477249200 10.5342964628693370
  0.0539325665598654  4.1404608412521799  6.4924160660989783
  0.0552036141780407  9.0402340877499743  9.3532569148048648
  2.8820799789460207  5.7767029022834970  6.5017887440454771
  2.8881432940990739  0.8587611455736167  9.3402019071316449
  2.8703114492100652  5.8124116986530296  9.3203618077951500
  2.8737134560916435  0.8109253534368107  6.5028481539007297
  2.7729633329080348  8.3877515419006468 10.7295227318897126
  2.8531085299060335  3.2969621119105912  7.9370922334930860
  5.6051885661622745  6.4659901856929363 10.7102677983935823
  5.5475400096794898  1.6364121416069590  7.9372502439576378
 -0.0591697405132520  1.5303004336099069 10.7304193351845196
  0.0229225268937344  6.6109885184993242  7.9427608672492385
  0.0371549592875961  4.0818630413584787  9.3500827370147945
  0.0399747140942757  9.1030235009591713  6.4983206916679848
  2.7598379859674265  3.3698182672150914 10.6758638036725291
  2.7230043974123554  8.2544507074240094  7.9570807297463650
  2.8548502456123495  5.6019227252881292 11.8036224342782283
