Co  N  H 
 1.0000000000000000
     4.3237399999999999    0.0000000000000000    0.0000000000000000
     0.0000000000000000    7.8388600000000004    0.0000000000000000
     0.0000000000000000    0.0000000000000000   27.1545999999999985
 Co  N   H  
  24   8   1
Cartesian
  0.0000000000000000  5.1959900000000001  0.3945600000000000
  0.0000000000000000  1.2765599999999999  2.6573500000000001
  0.0000000000000000  2.6428699999999998  0.3945600000000000
  0.0000000000000000  6.5622999999999996  2.6573500000000001
  2.1618700000000000  6.5622999999999996  4.1313000000000004
  2.1618700000000000  2.6428699999999998  1.8685099999999999
  0.0000000000000000  3.9194300000000002  2.6054800000000000
  0.0000000000000000  0.0000000000000000  0.3426900000000000
  2.1618700000000000  1.2765599999999999  4.1313000000000004
  2.1618700000000000  5.1959900000000001  1.8685099999999999
  2.1618700000000000  3.9194300000000002  4.1831699999999996
  2.1618700000000000  0.0000000000000000  1.9203699999999999
  0.0117800000000000  5.1679899999999996  4.9242999999999997
  0.0475000000000000  1.2895399999999999  7.2117000000000004
 -0.0003600000000000  2.6591200000000002  4.9189200000000000
 -0.0195500000000000  6.5129500000000000  7.2179300000000000
  2.2639000000000000  6.6486299999999998  8.4778800000000007
  2.2132800000000001  2.6367699999999998  6.3680800000000000
  0.0216000000000000  3.9091000000000000  7.2003599999999999
  0.0039600000000000 -0.0070400000000000  4.8621999999999996
  2.0941999999999998  1.1917199999999999  8.4922199999999997
  2.1358299999999999  5.1875400000000003  6.3778499999999996
  2.1819899999999999  3.8993000000000002  8.5077300000000005
  2.1720100000000002 -0.0041400000000000  6.3700400000000004
  3.2427999999999999  2.6129300000000000  3.3943200000000000
  3.2427999999999999  6.5323599999999997  1.1315299999999999
  1.0809299999999999  5.2259300000000000  3.3943200000000000
  1.0809299999999999  1.3065000000000000  1.1315299999999999
  3.2635399999999999  2.5511200000000001  7.9663899999999996
  3.2651800000000000  6.5038900000000002  5.6368900000000002
  1.1066900000000000  5.2646400000000000  7.9914899999999998
  1.0693400000000000  1.3210200000000001  5.6352399999999996
  2.1074400000000000  3.7212299999999998 10.0006500000000003
