Mo  N  H 
 1.0000000000000000
     5.6628600000000002    0.0000000000000000    0.0000000000000000
     0.0000000000000000    9.9302299999999999    0.0000000000000000
     0.0000000000000000    0.0000000000000000   28.6661000000000001
 Mo  N   H  
  32  32   1
Cartesian
  1.4265310626000132  5.0858665968000150  5.0687398019999801
  1.4265310626000132  0.1207515968000149  2.2021298019999400
  4.2579610626000131  2.5429332983999720  0.6644801980001004
  4.2579610626000131  7.5080482983999719  3.5310901979999372
  4.2579610626000131  2.5429332983999720  3.7400660670000718
  4.2579610626000131  7.5080482983999719  0.8734560670000315
  1.4265310626000132  7.3872967016000279  0.6644801980001004
  1.4265310626000132  2.4221817016000280  3.5310901979999372
  4.2579610626000131  4.8443634031999849  5.0687398019999801
  4.2579610626000131  9.8094784031999858  2.2021298019999400
  1.4265310626000132  7.3872967016000279  3.7400660670000718
  1.4265310626000132  2.4221817016000280  0.8734560670000315
  4.2186041855999941  4.9651149999999999  2.2021298019999400
  4.2186041855999941  0.0000000000000000  5.0687398019999801
  1.3871741855999944  4.9651149999999999  2.2021298019999400
  1.3871741855999944  0.0000000000000000  5.0687398019999801
  1.3882865851312218  5.0730501505015182 10.5443079373360629
  1.3804691666307445  0.1029951538054959  7.9285020369324837
  4.2508222346160789  2.5454399586737653  6.4274506822977315
  4.2292944821433434  7.5237534637859556  9.3396670405445494
  4.2413388354762622  2.5373749320145786  9.5444815775151390
  4.2488117689196017  7.5253400609363101  6.6022156932950633
  1.4199239865485975  7.3920514145700507  6.4202310803671638
  1.4011354733534152  2.4534699487883045  9.3366656558404717
  4.2183644146508827  4.8937507607890902 10.5454821000689378
  4.2209273507341933  9.8341469437926907  7.9204364422874658
  1.3969869590338975  7.4077373056977462  9.5296825812468757
  1.4177517913041919  2.4139718732193542  6.5999823672261879
  4.2120662789268657  4.9363160553099172  7.9186866194434113
  4.1326745650351029  9.8731384789456644 10.5995310976583301
  1.3812482973856341  5.0194658481072407  7.9167163436678294
  1.3770444463531162  0.1437838779066297 10.5931004716621793
  0.0374315046000113  4.1369338180000250  0.7676781580000631
  0.0374315046000113  9.1020488180000250  3.6342881579999022
  2.8688615046000114  5.7932961819999749  0.7676781580000631
  2.8688615046000114  0.8281811819999753  3.6342881579999022
  2.8688615046000114  5.7932961819999749  3.6365814460000174
  2.8688615046000114  0.8281811819999753  0.7699714459999771
  2.8688615046000114  8.2738676359999790  5.0687398019999801
  2.8688615046000114  3.3087526359999790  2.2021298019999400
  5.5466581128000136  6.6201864341000336  5.0687398019999801
  5.5466581128000136  1.6550714341000337  2.2021298019999400
  0.0374315046000113  1.6563623640000209  5.0687398019999801
  0.0374315046000113  6.6214773640000200  2.2021298019999400
  0.0374315046000113  4.1369338180000250  3.6365814460000174
  0.0374315046000113  9.1020488180000250  0.7699714459999771
  2.7152281128000131  3.3100435658999658  5.0687398019999801
  2.7152281128000131  8.2751585658999662  2.2021298019999400
  0.0529336897580839  4.1507641396330248  6.4998960385990721
  0.0310154066549567  9.0793152109351833  9.3570033664045500
  2.8875639448332930  5.7902680034761822  6.4944508324563381
  2.8777157070620190  0.8739944418022525  9.3182888601937162
  2.8665783108584697  5.8534255277208445  9.3361038173033926
  2.8644185949408523  0.8227703889652807  6.4975830692337890
  2.7697358249458972  8.3622324476653453 10.6869125817747790
  2.8393595071480684  3.3130906467344432  7.9396757051672111
  5.5934233763368777  6.5198984697432634 10.7172250677440690
  5.5504918698242687  1.6642563849918326  7.9528130411396845
  5.6038200371927296  1.5409208847117013 10.7329174062907011
  0.0088673528185074  6.6310601443611121  7.9318371735600079
  0.0370231161869575  4.1018727585711403  9.3418930088497305
  0.0371835608572741  9.1157798284790239  6.4989435176518109
  2.7651994134955693  3.4560288526059857 10.7033381226573372
  2.7157126684603790  8.2856596959128002  7.9443042720360513
  2.8271260255986514  0.6686536765014460 11.7901406807907776
